1116
TAHPMe.N12Cl12 SBU: one N12Cl12 cluster with its 12 TAHPMe cations
Cl 4.7061 0.1829 1.1994
N 14.2163 -6.9514 3.5089
H 15.1186 -6.9914 3.3982
H 13.8758 -7.7947 3.5458
H 14.0245 -6.5127 4.2842
N 4.4328 -1.5736 -1.3242
H 4.1372 -1.1383 -2.0661
H 4.3829 -1.0152 -0.6067
H 3.9126 -2.3056 -1.1757
C 8.4559 -2.7733 -1.8124
C 5.8246 -1.9918 -1.5223
C 13.6182 -6.2317 2.3796
C 9.8791 -3.1730 -1.8950
C 12.4752 -4.8766 0.2573
C 10.6512 -2.8069 -3.0226
C 10.4741 -3.8572 -0.8269
C 12.6240 -3.7606 -1.9745
C 11.8308 -4.1547 -0.8803
C 12.0104 -3.0997 -3.0391
C 9.9794 -2.1096 -4.1975
H 9.0114 -2.2580 -4.1554
H 10.3285 -2.4735 -5.0371
H 10.1653 -1.1495 -4.1554
C 6.1113 -3.2721 -1.8672
H 5.4091 -3.8955 -2.0140
C 7.4248 -3.6623 -2.0031
H 7.6231 -4.5617 -2.2312
C 14.0992 -4.0713 -2.0140
H 14.2524 -4.9704 -1.6535
H 14.5869 -3.4169 -1.4710
H 14.4172 -4.0299 -2.9392
C 6.8153 -1.0809 -1.3468
H 6.6098 -0.1810 -1.1149
C 9.6492 -4.2502 0.3824
H 9.1148 -3.4840 0.6747
H 10.2461 -4.5309 1.1091
H 9.0534 -4.9900 0.1448
C 8.1151 -1.4832 -1.5075
H 8.8077 -0.8416 -1.4015
C 13.0298 -6.9239 1.3771
H 13.0096 -7.8731 1.4001
C 12.4579 -6.2407 0.3172
H 12.0432 -6.7311 -0.3851
C 13.6334 -4.8875 2.3644
H 14.0358 -4.4050 3.0767
C 13.0582 -4.2132 1.2989
H 13.0694 -3.2629 1.2915
Cl -2.5114 3.9841 1.1994
N -0.8536 4.6257 -1.3242
H -1.0828 4.1521 -2.0661
H -1.3123 4.3033 -0.6067
H 0.0404 4.5412 -1.1757
C -1.8262 8.7097 -1.8124
C -1.1873 6.0401 -1.5223
H -2.5502 8.9331 -4.1554
C -0.2219 6.9286 -1.8672
H 0.6691 6.6322 -2.0140
C -0.5407 8.2613 -2.0031
H 0.1390 8.8827 -2.2312
C -2.4715 6.4427 -1.3468
H -3.1482 5.8148 -1.1149
C -2.7731 7.7695 -1.5075
H -3.6750 8.0485 -1.4015
N -1.0881 15.7874 3.5089
H -1.5046 16.5888 3.3982
H -0.1875 15.9142 3.5458
H -1.3721 15.4020 4.2842
C -1.4123 14.9096 2.3796
C -2.1916 10.1420 -1.8950
C -2.0143 13.2421 0.2573
C -2.8948 10.6277 -3.0226
C -1.8967 10.9994 -0.8269
C -3.0552 12.8130 -1.9745
C -2.3173 12.3231 -0.8803
C -3.3208 11.9511 -3.0391
C -3.1627 9.6972 -4.1975
H -3.0221 10.1815 -5.0371
H -4.0871 9.3781 -4.1554
C -3.5237 14.2459 -2.0140
H -2.8217 14.8281 -1.6535
H -4.3344 14.3411 -1.4710
H -3.7186 14.5006 -2.9392
C -1.1439 10.4816 0.3824
H -1.5401 9.6357 0.6747
H -1.1991 11.1388 1.1091
H -0.2052 10.3355 0.1448
C -0.5186 14.7461 1.3771
H 0.3135 15.2032 1.4001
C -0.8244 13.9092 0.3172
H -0.1923 13.7952 -0.3851
C -2.5840 14.2507 2.3644
H -3.2031 14.3579 3.0767
C -2.8804 13.4154 1.2989
H -3.7089 12.9499 1.2915
N -13.1282 -8.8360 3.5089
H -13.6140 -9.5974 3.3982
H -13.6884 -8.1195 3.5458
H -12.6524 -8.8892 4.2842
C -12.2059 -8.6779 2.3796
C -7.6875 -6.9690 -1.8950
C -10.4609 -8.3655 0.2573
C -7.7565 -7.8208 -3.0226
C -8.5775 -7.1423 -0.8269
C -9.5688 -9.0524 -1.9745
C -9.5135 -8.1684 -0.8803
C -8.6896 -8.8514 -3.0391
C -6.8167 -7.5876 -4.1975
H -7.3064 -7.7080 -5.0371
H -6.0782 -8.2286 -4.1554
C -10.5754 -10.1746 -2.0140
H -11.4307 -9.8577 -1.6535
H -10.2525 -10.9242 -1.4710
H -10.6986 -10.4708 -2.9392
C -8.5054 -6.2314 0.3824
H -7.5747 -6.1516 0.6747
H -9.0469 -6.6079 1.1091
H -8.8481 -5.3455 0.1448
C -12.5112 -7.8222 1.3771
H -13.3231 -7.3301 1.4001
C -11.6335 -7.6685 0.3172
H -11.8509 -7.0642 -0.3851
C -11.0494 -9.3631 2.3644
H -10.8327 -9.9529 3.0767
C -10.1779 -9.2022 1.2989
H -9.3605 -9.6870 1.2915
Cl -2.1947 -4.1670 1.1994
N -3.5792 -3.0521 -1.3242
H -3.0544 -3.0138 -2.0661
H -3.0706 -3.2881 -0.6067
H -3.9530 -2.2356 -1.1757
C -6.6297 -5.9364 -1.8124
C -4.6372 -4.0483 -1.5223
H -6.4612 -6.6751 -4.1554
C -5.8894 -3.6565 -1.8672
H -6.0782 -2.7367 -2.0140
C -6.8841 -4.5989 -2.0031
H -7.7621 -4.3210 -2.2312
C -4.3438 -5.3617 -1.3468
H -3.4617 -5.6338 -1.1149
C -5.3420 -6.2863 -1.5075
H -5.1327 -7.2069 -1.4015
Cl 1.0962 -2.9178 3.8729
N 3.0328 -0.4945 3.7304
H 2.5470 0.2669 3.8412
H 2.4726 -1.2111 3.6935
H 3.5086 -0.4413 2.9551
N 12.5818 -6.2784 8.5636
H 13.1066 -6.3168 9.3055
H 13.0904 -6.0425 7.8460
H 12.2080 -7.0950 8.4150
C 9.5313 -3.3942 9.0518
C 11.5238 -5.2822 8.7616
C 3.9551 -0.6527 4.8598
C 8.4735 -2.3616 9.1343
C 5.7001 -0.9651 6.9821
C 8.4045 -1.5098 10.2619
C 7.5835 -2.1883 8.0662
C 6.5922 -0.2781 9.2138
C 6.6475 -1.1621 8.1197
C 7.4714 -0.4791 10.2784
C 9.3443 -1.7429 11.4369
H 9.6998 -2.6555 11.3947
H 8.8546 -1.6226 12.2765
H 10.0828 -1.1019 11.3947
C 10.2716 -5.6741 9.1065
H 10.0828 -6.5939 9.2533
C 9.2769 -4.7316 9.2425
H 8.3989 -5.0096 9.4705
C 5.5856 0.8440 9.2533
H 4.7303 0.5272 8.8928
H 5.9085 1.5937 8.7104
H 5.4624 1.1402 10.1785
C 11.8172 -3.9688 8.5862
H 12.6993 -3.6968 8.3542
C 7.6556 -3.0991 6.8570
H 8.5863 -3.1789 6.5646
H 7.1141 -2.7227 6.1303
H 7.3129 -3.9851 7.0946
C 10.8190 -3.0443 8.7469
H 11.0283 -2.1236 8.6409
C 3.6498 -1.5084 5.8623
H 2.8379 -2.0005 5.8393
C 4.5275 -1.6621 6.9221
H 4.3101 -2.2664 7.6245
C 5.1116 0.0326 4.8750
H 5.3283 0.6223 4.1626
C 5.9831 -0.1284 5.9405
H 6.8005 0.3564 5.9478
N -11.7282 -7.7570 8.5636
H -12.0238 -8.1922 9.3055
H -11.7781 -8.3154 7.8460
H -12.2484 -7.0250 8.4150
C -7.7051 -6.5572 9.0518
C -10.3364 -7.3388 8.7616
H -7.1496 -7.0726 11.3947
C -10.0497 -6.0584 9.1065
H -10.7519 -5.4350 9.2533
C -8.7362 -5.6682 9.2425
H -8.5379 -4.7688 9.4705
C -9.3457 -8.2496 8.5862
H -9.5512 -9.1495 8.3542
C -8.0459 -7.8474 8.7469
H -7.3533 -8.4889 8.6409
Cl -3.0750 0.5095 3.8729
N -1.9447 -2.3792 3.7304
H -1.0424 -2.3392 3.8412
H -2.2852 -1.5358 3.6935
H -2.1365 -2.8178 2.9551
C -2.5428 -3.0989 4.8598
C -6.2819 -6.1575 9.1343
C -3.6858 -4.4539 6.9821
C -5.5098 -6.5236 10.2619
C -5.6869 -5.4734 8.0662
C -3.5370 -5.5700 9.2138
C -4.3302 -5.1758 8.1197
C -4.1506 -6.2309 10.2784
C -6.1816 -7.2209 11.4369
H -5.8325 -6.8570 12.2765
H -5.9957 -8.1810 11.3947
C -2.0618 -5.2593 9.2533
H -1.9086 -4.3602 8.8928
H -1.5741 -5.9137 8.7104
H -1.7438 -5.3007 10.1785
C -6.5118 -5.0804 6.8570
H -7.0462 -5.8465 6.5646
H -5.9149 -4.7996 6.1303
H -7.1076 -4.3406 7.0946
C -3.1312 -2.4066 5.8623
H -3.1514 -1.4574 5.8393
C -3.7031 -3.0899 6.9221
H -4.1178 -2.5995 7.6245
C -2.5276 -4.4430 4.8750
H -2.1252 -4.9256 4.1626
C -3.1028 -5.1173 5.9405
H -3.0916 -6.0677 5.9478
Cl 1.9788 2.4082 3.8729
N -1.0881 2.8737 3.7304
H -1.5046 2.0723 3.8412
H -0.1875 2.7469 3.6935
H -1.3721 3.2592 2.9551
C -1.4123 3.7515 4.8598
C -2.1916 8.5191 9.1343
C -2.0143 5.4190 6.9821
C -2.8948 8.0334 10.2619
C -1.8967 7.6617 8.0662
C -3.0552 5.8481 9.2138
C -2.3173 6.3380 8.1197
C -3.3208 6.7100 10.2784
C -3.1627 8.9639 11.4369
H -3.0221 8.4796 12.2765
H -4.0871 9.2830 11.3947
C -3.5237 4.4152 9.2533
H -2.8217 3.8330 8.8928
H -4.3344 4.3200 8.7104
H -3.7186 4.1605 10.1785
C -1.1439 8.1795 6.8570
H -1.5401 9.0254 6.5646
H -1.1991 7.5223 6.1303
H -0.2052 8.3257 7.0946
C -0.5186 3.9150 5.8623
H 0.3135 3.4579 5.8393
C -0.8244 4.7520 6.9221
H -0.1923 4.8659 7.6245
C -2.5840 4.4105 4.8750
H -3.2031 4.3033 4.1626
C -2.8804 5.2457 5.9405
H -3.7089 5.7112 5.9478
N -0.8536 14.0354 8.5636
H -1.0828 14.5090 9.3055
H -1.3123 14.3579 7.8460
H 0.0404 14.1199 8.4150
C -1.8262 9.9514 9.0518
C -1.1873 12.6210 8.7616
H -2.5502 9.7280 11.3947
C -0.2219 11.7325 9.1065
H 0.6691 12.0290 9.2533
C -0.5407 10.3998 9.2425
H 0.1390 9.7784 9.4705
C -2.4715 12.2185 8.5862
H -3.1482 12.8463 8.3542
C -2.7731 10.8917 8.7469
H -3.6750 10.6126 8.6409
N 1.9447 -2.3792 -17.9876
H 1.0424 -2.3392 -17.8769
H 2.2852 -1.5358 -18.0245
H 2.1365 -2.8178 -18.7629
N 11.7282 -7.7570 -13.1545
H 12.0238 -8.1922 -12.4126
H 11.7781 -8.3154 -13.8720
H 12.2484 -7.0250 -13.3030
C 7.7051 -6.5572 -12.6663
C 10.3364 -7.3388 -12.9564
C 2.5428 -3.0989 -16.8583
C 6.2819 -6.1575 -12.5837
C 3.6858 -4.4539 -14.7360
C 5.5098 -6.5236 -11.4561
C 5.6869 -5.4734 -13.6518
C 3.5370 -5.5700 -12.5042
C 4.3302 -5.1758 -13.5984
C 4.1506 -6.2309 -11.4396
C 6.1816 -7.2209 -10.2812
H 7.1496 -7.0726 -10.3233
H 5.8325 -6.8570 -9.4416
H 5.9957 -8.1810 -10.3233
C 10.0497 -6.0584 -12.6115
H 10.7519 -5.4350 -12.4647
C 8.7362 -5.6682 -12.4756
H 8.5379 -4.7688 -12.2475
C 2.0618 -5.2593 -12.4647
H 1.9086 -4.3602 -12.8252
H 1.5741 -5.9137 -13.0077
H 1.7438 -5.3007 -11.5395
C 9.3457 -8.2496 -13.1319
H 9.5512 -9.1495 -13.3638
C 6.5118 -5.0804 -14.8611
H 7.0462 -5.8465 -15.1534
H 5.9149 -4.7996 -15.5878
H 7.1076 -4.3406 -14.6235
C 8.0459 -7.8474 -12.9712
H 7.3533 -8.4889 -13.0772
C 3.1312 -2.4066 -15.8558
H 3.1514 -1.4574 -15.8788
C 3.7031 -3.0899 -14.7959
H 4.1178 -2.5995 -14.0936
C 2.5276 -4.4430 -16.8431
H 2.1252 -4.9256 -17.5554
C 3.1028 -5.1173 -15.7776
H 3.0916 -6.0677 -15.7702
N 1.0881 2.8737 -17.9876
H 1.5046 2.0723 -17.8769
H 0.1875 2.7469 -18.0245
H 1.3721 3.2592 -18.7629
C 1.4123 3.7515 -16.8583
C 2.1916 8.5191 -12.5837
C 2.0143 5.4190 -14.7360
C 2.8948 8.0334 -11.4561
C 1.8967 7.6617 -13.6518
C 3.0552 5.8481 -12.5042
C 2.3173 6.3380 -13.5984
C 3.3208 6.7100 -11.4396
C 3.1627 8.9639 -10.2812
H 3.0221 8.4796 -9.4416
H 4.0871 9.2830 -10.3233
C 3.5237 4.4152 -12.4647
H 2.8217 3.8330 -12.8252
H 4.3344 4.3200 -13.0077
H 3.7186 4.1605 -11.5395
C 1.1439 8.1795 -14.8611
H 1.5401 9.0254 -15.1534
H 1.1991 7.5223 -15.5878
H 0.2052 8.3257 -14.6235
C 0.5186 3.9150 -15.8558
H -0.3135 3.4579 -15.8788
C 0.8244 4.7520 -14.7959
H 0.1923 4.8659 -14.0936
C 2.5840 4.4105 -16.8431
H 3.2031 4.3033 -17.5554
C 2.8804 5.2457 -15.7776
H 3.7089 5.7112 -15.7702
N 0.8536 14.0354 -13.1545
H 1.0828 14.5090 -12.4126
H 1.3123 14.3579 -13.8720
H -0.0404 14.1199 -13.3030
C 1.8262 9.9514 -12.6663
C 1.1873 12.6210 -12.9564
H 2.5502 9.7280 -10.3233
C 0.2219 11.7325 -12.6115
H -0.6691 12.0290 -12.4647
C 0.5407 10.3998 -12.4756
H -0.1390 9.7784 -12.2475
C 2.4715 12.2185 -13.1319
H 3.1482 12.8463 -13.3638
C 2.7731 10.8917 -12.9712
H 3.6750 10.6126 -13.0772
N -12.5818 -6.2784 -13.1545
H -13.1066 -6.3168 -12.4126
H -13.0904 -6.0425 -13.8720
H -12.2080 -7.0950 -13.3030
C -9.5313 -3.3942 -12.6663
C -11.5238 -5.2822 -12.9564
H -9.6998 -2.6555 -10.3233
C -10.2716 -5.6741 -12.6115
H -10.0828 -6.5939 -12.4647
C -9.2769 -4.7316 -12.4756
H -8.3989 -5.0096 -12.2475
C -11.8172 -3.9688 -13.1319
H -12.6993 -3.6968 -13.3638
C -10.8190 -3.0443 -12.9712
H -11.0283 -2.1236 -13.0772
N -3.0328 -0.4945 -17.9876
H -2.5470 0.2669 -17.8769
H -2.4726 -1.2111 -18.0245
H -3.5086 -0.4413 -18.7629
C -3.9551 -0.6527 -16.8583
C -8.4735 -2.3616 -12.5837
C -5.7001 -0.9651 -14.7360
C -8.4045 -1.5098 -11.4561
C -7.5835 -2.1883 -13.6518
C -6.5922 -0.2781 -12.5042
C -6.6475 -1.1621 -13.5984
C -7.4714 -0.4791 -11.4396
C -9.3443 -1.7429 -10.2812
H -8.8546 -1.6226 -9.4416
H -10.0828 -1.1019 -10.3233
C -5.5856 0.8440 -12.4647
H -4.7303 0.5272 -12.8252
H -5.9085 1.5937 -13.0077
H -5.4624 1.1402 -11.5395
C -7.6556 -3.0991 -14.8611
H -8.5863 -3.1789 -15.1534
H -7.1141 -2.7227 -15.5878
H -7.3129 -3.9851 -14.6235
C -3.6498 -1.5084 -15.8558
H -2.8379 -2.0005 -15.8788
C -4.5275 -1.6621 -14.7959
H -4.3101 -2.2664 -14.0936
C -5.1116 0.0326 -16.8431
H -5.3283 0.6223 -17.5554
C -5.9831 -0.1284 -15.7776
H -6.8005 0.3564 -15.7702
N -11.7282 7.7570 13.1545
H -12.0238 8.1922 12.4126
H -11.7781 8.3154 13.8720
H -12.2484 7.0250 13.3030
C -7.7051 6.5572 12.6663
C -10.3364 7.3388 12.9564
C -6.2819 6.1575 12.5837
C -5.5098 6.5236 11.4561
C -5.6869 5.4734 13.6518
C -3.5370 5.5700 12.5042
C -4.3302 5.1758 13.5984
C -4.1506 6.2309 11.4396
C -6.1816 7.2209 10.2812
H -7.1496 7.0726 10.3233
H -5.8325 6.8570 9.4416
H -5.9957 8.1810 10.3233
C -10.0497 6.0584 12.6115
H -10.7519 5.4350 12.4647
C -8.7362 5.6682 12.4756
H -8.5379 4.7688 12.2475
C -2.0618 5.2593 12.4647
H -1.9086 4.3602 12.8252
H -1.5741 5.9137 13.0077
H -1.7438 5.3007 11.5395
C -9.3457 8.2496 13.1319
H -9.5512 9.1495 13.3638
C -8.0459 7.8474 12.9712
H -7.3533 8.4889 13.0772
H -4.1178 2.5995 14.0936
N -1.9447 2.3792 17.9876
H -1.0424 2.3392 17.8769
H -2.2852 1.5358 18.0245
H -2.1365 2.8178 18.7629
C -2.5428 3.0989 16.8583
C -3.6858 4.4539 14.7360
C -6.5118 5.0804 14.8611
H -7.0462 5.8465 15.1534
H -5.9149 4.7996 15.5878
H -7.1076 4.3406 14.6235
C -3.1312 2.4066 15.8558
H -3.1514 1.4574 15.8788
C -3.7031 3.0899 14.7959
C -2.5276 4.4430 16.8431
H -2.1252 4.9256 17.5554
C -3.1028 5.1173 15.7776
H -3.0916 6.0677 15.7702
N -0.8536 -14.0354 13.1545
H -1.0828 -14.5090 12.4126
H -1.3123 -14.3579 13.8720
H 0.0404 -14.1199 13.3030
C -1.8262 -9.9514 12.6663
C -1.1873 -12.6210 12.9564
C -2.1916 -8.5191 12.5837
C -2.8948 -8.0334 11.4561
C -1.8967 -7.6617 13.6518
C -3.0552 -5.8481 12.5042
C -2.3173 -6.3380 13.5984
C -3.3208 -6.7100 11.4396
C -3.1627 -8.9639 10.2812
H -2.5502 -9.7280 10.3233
H -3.0221 -8.4796 9.4416
H -4.0871 -9.2830 10.3233
C -0.2219 -11.7325 12.6115
H 0.6691 -12.0290 12.4647
C -0.5407 -10.3998 12.4756
H 0.1390 -9.7784 12.2475
C -3.5237 -4.4152 12.4647
H -2.8217 -3.8330 12.8252
H -4.3344 -4.3200 13.0077
H -3.7186 -4.1605 11.5395
C -2.4715 -12.2185 13.1319
H -3.1482 -12.8463 13.3638
C -2.7731 -10.8917 12.9712
H -3.6750 -10.6126 13.0772
H -0.1923 -4.8659 14.0936
N -1.0881 -2.8737 17.9876
H -1.5046 -2.0723 17.8769
H -0.1875 -2.7469 18.0245
H -1.3721 -3.2592 18.7629
C -1.4123 -3.7515 16.8583
C -2.0143 -5.4190 14.7360
C -1.1439 -8.1795 14.8611
H -1.5401 -9.0254 15.1534
H -1.1991 -7.5223 15.5878
H -0.2052 -8.3257 14.6235
C -0.5186 -3.9150 15.8558
H 0.3135 -3.4579 15.8788
C -0.8244 -4.7520 14.7959
C -2.5840 -4.4105 16.8431
H -3.2031 -4.3033 17.5554
C -2.8804 -5.2457 15.7776
H -3.7089 -5.7112 15.7702
N 12.5818 6.2784 13.1545
H 13.1066 6.3168 12.4126
H 13.0904 6.0425 13.8720
H 12.2080 7.0950 13.3030
C 9.5313 3.3942 12.6663
C 11.5238 5.2822 12.9564
C 8.4735 2.3616 12.5837
C 8.4045 1.5098 11.4561
C 7.5835 2.1883 13.6518
C 6.5922 0.2781 12.5042
C 6.6475 1.1621 13.5984
C 7.4714 0.4791 11.4396
C 9.3443 1.7429 10.2812
H 9.6998 2.6555 10.3233
H 8.8546 1.6226 9.4416
H 10.0828 1.1019 10.3233
C 10.2716 5.6741 12.6115
H 10.0828 6.5939 12.4647
C 9.2769 4.7316 12.4756
H 8.3989 5.0096 12.2475
C 5.5856 -0.8440 12.4647
H 4.7303 -0.5272 12.8252
H 5.9085 -1.5937 13.0077
H 5.4624 -1.1402 11.5395
C 11.8172 3.9688 13.1319
H 12.6993 3.6968 13.3638
C 10.8190 3.0443 12.9712
H 11.0283 2.1236 13.0772
H 4.3101 2.2664 14.0936
N 3.0328 0.4945 17.9876
H 2.5470 -0.2669 17.8769
H 2.4726 1.2111 18.0245
H 3.5086 0.4413 18.7629
C 3.9551 0.6527 16.8583
C 5.7001 0.9651 14.7360
C 7.6556 3.0991 14.8611
H 8.5863 3.1789 15.1534
H 7.1141 2.7227 15.5878
H 7.3129 3.9851 14.6235
C 3.6498 1.5084 15.8558
H 2.8379 2.0005 15.8788
C 4.5275 1.6621 14.7959
C 5.1116 -0.0326 16.8431
H 5.3283 -0.6223 17.5554
C 5.9831 0.1284 15.7776
H 6.8005 -0.3564 15.7702
H -15.1186 6.9914 -3.3982
C -14.0992 4.0713 2.0140
H -14.2524 4.9704 1.6535
H -14.5869 3.4169 1.4710
H -14.4172 4.0299 2.9392
C -13.6334 4.8875 -2.3644
H -14.0358 4.4050 -3.0767
H -13.0694 3.2629 -1.2915
Cl -4.7061 -0.1829 -1.1994
N -14.2163 6.9514 -3.5089
H -13.8758 7.7947 -3.5458
H -14.0245 6.5127 -4.2842
N -4.4328 1.5736 1.3242
H -4.1372 1.1383 2.0661
H -4.3829 1.0152 0.6067
H -3.9126 2.3056 1.1757
C -8.4559 2.7733 1.8124
C -5.8246 1.9918 1.5223
C -13.6182 6.2317 -2.3796
C -9.8791 3.1730 1.8950
C -12.4752 4.8766 -0.2573
C -10.6512 2.8069 3.0226
C -10.4741 3.8572 0.8269
C -12.6240 3.7606 1.9745
C -11.8308 4.1547 0.8803
C -12.0104 3.0997 3.0391
C -9.9794 2.1096 4.1975
H -9.0114 2.2580 4.1554
H -10.3285 2.4735 5.0371
H -10.1653 1.1495 4.1554
C -6.1113 3.2721 1.8672
H -5.4091 3.8955 2.0140
C -7.4248 3.6623 2.0031
H -7.6231 4.5617 2.2312
C -6.8153 1.0809 1.3468
H -6.6098 0.1810 1.1149
C -9.6492 4.2502 -0.3824
H -9.1148 3.4840 -0.6747
H -10.2461 4.5309 -1.1091
H -9.0534 4.9900 -0.1448
C -8.1151 1.4832 1.5075
H -8.8077 0.8416 1.4015
C -13.0298 6.9239 -1.3771
H -13.0096 7.8731 -1.4001
C -12.4579 6.2407 -0.3172
H -12.0432 6.7311 0.3851
C -13.0582 4.2132 -1.2989
Cl 2.5114 -3.9841 -1.1994
N 1.0881 -15.7874 -3.5089
H 1.5046 -16.5888 -3.3982
H 0.1875 -15.9142 -3.5458
H 1.3721 -15.4020 -4.2842
N 0.8536 -4.6257 1.3242
H 1.0828 -4.1521 2.0661
H 1.3123 -4.3033 0.6067
H -0.0404 -4.5412 1.1757
C 1.8262 -8.7097 1.8124
C 1.1873 -6.0401 1.5223
C 1.4123 -14.9096 -2.3796
C 2.1916 -10.1420 1.8950
C 2.0143 -13.2421 -0.2573
C 2.8948 -10.6277 3.0226
C 1.8967 -10.9994 0.8269
C 3.0552 -12.8130 1.9745
C 2.3173 -12.3231 0.8803
C 3.3208 -11.9511 3.0391
C 3.1627 -9.6972 4.1975
H 2.5502 -8.9331 4.1554
H 3.0221 -10.1815 5.0371
H 4.0871 -9.3781 4.1554
C 0.2219 -6.9286 1.8672
H -0.6691 -6.6322 2.0140
C 0.5407 -8.2613 2.0031
H -0.1390 -8.8827 2.2312
C 3.5237 -14.2459 2.0140
H 2.8217 -14.8281 1.6535
H 4.3344 -14.3411 1.4710
H 3.7186 -14.5006 2.9392
C 2.4715 -6.4427 1.3468
H 3.1482 -5.8148 1.1149
C 1.1439 -10.4816 -0.3824
H 1.5401 -9.6357 -0.6747
H 1.1991 -11.1388 -1.1091
H 0.2052 -10.3355 -0.1448
C 2.7731 -7.7695 1.5075
H 3.6750 -8.0485 1.4015
C 0.5186 -14.7461 -1.3771
H -0.3135 -15.2032 -1.4001
C 0.8244 -13.9092 -0.3172
H 0.1923 -13.7952 0.3851
C 2.5840 -14.2507 -2.3644
H 3.2031 -14.3579 -3.0767
C 2.8804 -13.4154 -1.2989
H 3.7089 -12.9499 -1.2915
Cl 2.1947 4.1670 -1.1994
N 13.1282 8.8360 -3.5089
H 13.6884 8.1195 -3.5458
H 12.6524 8.8892 -4.2842
N 3.5792 3.0521 1.3242
H 3.0544 3.0138 2.0661
H 3.0706 3.2881 0.6067
H 3.9530 2.2356 1.1757
C 6.6297 5.9364 1.8124
C 4.6372 4.0483 1.5223
C 12.2059 8.6779 -2.3796
C 7.6875 6.9690 1.8950
C 10.4609 8.3655 -0.2573
C 7.7565 7.8208 3.0226
C 8.5775 7.1423 0.8269
C 9.5688 9.0524 1.9745
C 9.5135 8.1684 0.8803
C 8.6896 8.8514 3.0391
C 6.8167 7.5876 4.1975
H 6.4612 6.6751 4.1554
H 7.3064 7.7080 5.0371
H 6.0782 8.2286 4.1554
C 5.8894 3.6565 1.8672
H 6.0782 2.7367 2.0140
C 6.8841 4.5989 2.0031
H 7.7621 4.3210 2.2312
C 4.3438 5.3617 1.3468
H 3.4617 5.6338 1.1149
C 8.5054 6.2314 -0.3824
H 7.5747 6.1516 -0.6747
H 9.0469 6.6079 -1.1091
H 8.8481 5.3455 -0.1448
C 5.3420 6.2863 1.5075
H 5.1327 7.2069 1.4015
C 12.5112 7.8222 -1.3771
H 13.3231 7.3301 -1.4001
C 11.6335 7.6685 -0.3172
H 11.8509 7.0642 0.3851
C 10.1779 9.2022 -1.2989
H 13.6140 9.5974 -3.3982
C 10.5754 10.1746 2.0140
H 11.4307 9.8577 1.6535
H 10.2525 10.9242 1.4710
H 10.6986 10.4708 2.9392
C 11.0494 9.3631 -2.3644
H 10.8327 9.9529 -3.0767
H 9.3605 9.6870 -1.2915
Cl -1.0962 2.9178 -3.8729
N -3.0328 0.4945 -3.7304
H -2.5470 -0.2669 -3.8412
H -2.4726 1.2111 -3.6935
H -3.5086 0.4413 -2.9551
N -12.5818 6.2784 -8.5636
H -13.1066 6.3168 -9.3055
H -13.0904 6.0425 -7.8460
H -12.2080 7.0950 -8.4150
C -9.5313 3.3942 -9.0518
C -11.5238 5.2822 -8.7616
C -3.9551 0.6527 -4.8598
C -8.4735 2.3616 -9.1343
C -5.7001 0.9651 -6.9821
C -8.4045 1.5098 -10.2619
C -7.5835 2.1883 -8.0662
C -6.5922 0.2781 -9.2138
C -6.6475 1.1621 -8.1197
C -7.4714 0.4791 -10.2784
C -9.3443 1.7429 -11.4369
H -9.6998 2.6555 -11.3947
H -8.8546 1.6226 -12.2765
H -10.0828 1.1019 -11.3947
C -10.2716 5.6741 -9.1065
H -10.0828 6.5939 -9.2533
C -9.2769 4.7316 -9.2425
H -8.3989 5.0096 -9.4705
C -5.5856 -0.8440 -9.2533
H -4.7303 -0.5272 -8.8928
H -5.9085 -1.5937 -8.7104
H -5.4624 -1.1402 -10.1785
C -11.8172 3.9688 -8.5862
H -12.6993 3.6968 -8.3542
C -7.6556 3.0991 -6.8570
H -8.5863 3.1789 -6.5646
H -7.1141 2.7227 -6.1303
H -7.3129 3.9851 -7.0946
C -10.8190 3.0443 -8.7469
H -11.0283 2.1236 -8.6409
C -3.6498 1.5084 -5.8623
H -2.8379 2.0005 -5.8393
C -4.5275 1.6621 -6.9221
H -4.3101 2.2664 -7.6245
C -5.1116 -0.0326 -4.8750
H -5.3283 -0.6223 -4.1626
C -5.9831 0.1284 -5.9405
H -6.8005 -0.3564 -5.9478
Cl 3.0750 -0.5095 -3.8729
N 1.9447 2.3792 -3.7304
H 1.0424 2.3392 -3.8412
H 2.2852 1.5358 -3.6935
H 2.1365 2.8178 -2.9551
N 11.7282 7.7570 -8.5636
H 12.0238 8.1922 -9.3055
H 11.7781 8.3154 -7.8460
H 12.2484 7.0250 -8.4150
C 7.7051 6.5572 -9.0518
C 10.3364 7.3388 -8.7616
C 2.5428 3.0989 -4.8598
C 6.2819 6.1575 -9.1343
C 3.6858 4.4539 -6.9821
C 5.5098 6.5236 -10.2619
C 5.6869 5.4734 -8.0662
C 3.5370 5.5700 -9.2138
C 4.3302 5.1758 -8.1197
C 4.1506 6.2309 -10.2784
C 6.1816 7.2209 -11.4369
H 7.1496 7.0726 -11.3947
H 5.8325 6.8570 -12.2765
H 5.9957 8.1810 -11.3947
C 10.0497 6.0584 -9.1065
H 10.7519 5.4350 -9.2533
C 8.7362 5.6682 -9.2425
H 8.5379 4.7688 -9.4705
C 2.0618 5.2593 -9.2533
H 1.9086 4.3602 -8.8928
H 1.5741 5.9137 -8.7104
H 1.7438 5.3007 -10.1785
C 9.3457 8.2496 -8.5862
H 9.5512 9.1495 -8.3542
C 6.5118 5.0804 -6.8570
H 7.0462 5.8465 -6.5646
H 5.9149 4.7996 -6.1303
H 7.1076 4.3406 -7.0946
C 8.0459 7.8474 -8.7469
H 7.3533 8.4889 -8.6409
C 3.1312 2.4066 -5.8623
H 3.1514 1.4574 -5.8393
C 3.7031 3.0899 -6.9221
H 4.1178 2.5995 -7.6245
C 2.5276 4.4430 -4.8750
H 2.1252 4.9256 -4.1626
C 3.1028 5.1173 -5.9405
H 3.0916 6.0677 -5.9478
Cl -1.9788 -2.4082 -3.8729
N 1.0881 -2.8737 -3.7304
H 1.5046 -2.0723 -3.8412
H 0.1875 -2.7469 -3.6935
H 1.3721 -3.2592 -2.9551
N 0.8536 -14.0354 -8.5636
H 1.0828 -14.5090 -9.3055
H 1.3123 -14.3579 -7.8460
H -0.0404 -14.1199 -8.4150
C 1.8262 -9.9514 -9.0518
C 1.1873 -12.6210 -8.7616
C 1.4123 -3.7515 -4.8598
C 2.1916 -8.5191 -9.1343
C 2.0143 -5.4190 -6.9821
C 2.8948 -8.0334 -10.2619
C 1.8967 -7.6617 -8.0662
C 3.0552 -5.8481 -9.2138
C 2.3173 -6.3380 -8.1197
C 3.3208 -6.7100 -10.2784
C 3.1627 -8.9639 -11.4369
H 2.5502 -9.7280 -11.3947
H 3.0221 -8.4796 -12.2765
H 4.0871 -9.2830 -11.3947
C 0.2219 -11.7325 -9.1065
H -0.6691 -12.0290 -9.2533
C 0.5407 -10.3998 -9.2425
H -0.1390 -9.7784 -9.4705
C 3.5237 -4.4152 -9.2533
H 2.8217 -3.8330 -8.8928
H 4.3344 -4.3200 -8.7104
H 3.7186 -4.1605 -10.1785
C 2.4715 -12.2185 -8.5862
H 3.1482 -12.8463 -8.3542
C 1.1439 -8.1795 -6.8570
H 1.5401 -9.0254 -6.5646
H 1.1991 -7.5223 -6.1303
H 0.2052 -8.3257 -7.0946
C 2.7731 -10.8917 -8.7469
H 3.6750 -10.6126 -8.6409
C 0.5186 -3.9150 -5.8623
H -0.3135 -3.4579 -5.8393
C 0.8244 -4.7520 -6.9221
H 0.1923 -4.8659 -7.6245
C 2.5840 -4.4105 -4.8750
H 3.2031 -4.3033 -4.1626
C 2.8804 -5.2457 -5.9405
H 3.7089 -5.7112 -5.9478
N -13.1282 -9.8251 -10.7483
H -13.6140 -9.0637 -10.6375
H -13.6884 -10.5417 -10.7852
H -12.6524 -9.7719 -11.5236
N -3.5792 -15.6090 -5.9151
H -3.0544 -15.6473 -5.1732
H -3.0706 -15.3730 -6.6327
H -3.9530 -16.4255 -6.0637
C -6.6297 -12.7247 -5.4269
C -4.6372 -14.6128 -5.7171
C -12.2059 -9.9832 -9.6189
C -7.6875 -11.6921 -5.3444
C -10.4609 -10.2956 -7.4966
C -7.7565 -10.8403 -4.2168
C -8.5775 -11.5189 -6.4125
C -9.5688 -9.6087 -5.2649
C -9.5135 -10.4927 -6.3590
C -8.6896 -9.8097 -4.2003
C -6.8167 -11.0735 -3.0418
H -6.4612 -11.9860 -3.0840
H -7.3064 -10.9531 -2.2022
H -6.0782 -10.4325 -3.0840
C -5.8894 -15.0047 -5.3722
H -6.0782 -15.9245 -5.2254
C -6.8841 -14.0622 -5.2362
H -7.7621 -14.3401 -5.0082
C -10.5754 -8.4865 -5.2254
H -11.4307 -8.8034 -5.5859
H -10.2525 -7.7369 -5.7683
H -10.6986 -8.1904 -4.3002
C -4.3438 -13.2994 -5.8925
H -3.4617 -13.0273 -6.1245
C -8.5054 -12.4297 -7.6217
H -7.5747 -12.5095 -7.9141
H -9.0469 -12.0532 -8.3484
H -8.8481 -13.3156 -7.3841
C -5.3420 -12.3748 -5.7318
H -5.1327 -11.4542 -5.8378
C -12.5112 -10.8389 -8.6164
H -13.3231 -11.3310 -8.6394
C -11.6335 -10.9926 -7.5566
H -11.8509 -11.5970 -6.8542
C -11.0494 -9.2980 -9.6037
H -10.8327 -8.7082 -10.3161
C -10.1779 -9.4589 -8.5382
H -9.3605 -8.9741 -8.5309
N -1.9447 16.2819 -10.7483
H -1.0424 16.3219 -10.6375
H -2.2852 17.1253 -10.7852
H -2.1365 15.8433 -11.5236
N -11.7282 10.9042 -5.9151
H -12.0238 10.4689 -5.1732
H -11.7781 10.3457 -6.6327
H -12.2484 11.6361 -6.0637
C -7.7051 12.1039 -5.4269
C -10.3364 11.3224 -5.7171
C -2.5428 15.5623 -9.6189
C -6.2819 12.5036 -5.3444
C -3.6858 14.2072 -7.4966
C -5.5098 12.1375 -4.2168
C -5.6869 13.1877 -6.4125
C -3.5370 13.0911 -5.2649
C -4.3302 13.4853 -6.3590
C -4.1506 12.4303 -4.2003
C -6.1816 11.4402 -3.0418
H -7.1496 11.5886 -3.0840
H -5.8325 11.8041 -2.2022
H -5.9957 10.4801 -3.0840
C -10.0497 12.6027 -5.3722
H -10.7519 13.2261 -5.2254
C -8.7362 12.9929 -5.2362
H -8.5379 13.8923 -5.0082
C -2.0618 13.4019 -5.2254
H -1.9086 14.3009 -5.5859
H -1.5741 12.7474 -5.7683
H -1.7438 13.3604 -4.3002
C -9.3457 10.4115 -5.8925
H -9.5512 9.5116 -6.1245
C -6.5118 13.5807 -7.6217
H -7.0462 12.8146 -7.9141
H -5.9149 13.8615 -8.3484
H -7.1076 14.3205 -7.3841
C -8.0459 10.8137 -5.7318
H -7.3533 10.1722 -5.8378
C -3.1312 16.2545 -8.6164
H -3.1514 17.2037 -8.6394
C -3.7031 15.5712 -7.5566
H -4.1178 16.0616 -6.8542
C -2.5276 14.2181 -9.6037
H -2.1252 13.7355 -10.3161
C -3.1028 13.5438 -8.5382
H -3.0916 12.5935 -8.5309
N 15.0729 -6.4568 -10.7483
H 14.6564 -7.2582 -10.6375
H 15.9735 -6.5836 -10.7852
H 14.7889 -6.0714 -11.5236
N 15.3074 4.7048 -5.9151
H 15.0782 5.1785 -5.1732
H 14.8487 5.0273 -6.6327
H 16.2014 4.7894 -6.0637
C 14.3348 0.6209 -5.4269
C 14.9737 3.2904 -5.7171
C 14.7487 -5.5790 -9.6189
C 13.9694 -0.8115 -5.3444
C 14.1467 -3.9116 -7.4966
C 13.2662 -1.2971 -4.2168
C 14.2643 -1.6689 -6.4125
C 13.1058 -3.4824 -5.2649
C 13.8437 -2.9926 -6.3590
C 12.8402 -2.6206 -4.2003
C 12.9983 -0.3667 -3.0418
H 13.6108 0.3975 -3.0840
H 13.1389 -0.8509 -2.2022
H 12.0739 -0.0476 -3.0840
C 15.9391 2.4020 -5.3722
H 16.8301 2.6984 -5.2254
C 15.6203 1.0693 -5.2362
H 16.3000 0.4479 -5.0082
C 12.6373 -4.9153 -5.2254
H 13.3393 -5.4976 -5.5859
H 11.8266 -5.0105 -5.7683
H 12.4424 -5.1701 -4.3002
C 13.6895 2.8879 -5.8925
H 13.0128 3.5158 -6.1245
C 15.0171 -1.1510 -7.6217
H 14.6209 -0.3051 -7.9141
H 14.9619 -1.8083 -8.3484
H 15.9558 -1.0049 -7.3841
C 13.3879 1.5611 -5.7318
H 12.4860 1.2820 -5.8378
C 15.6424 -5.4155 -8.6164
H 16.4745 -5.8727 -8.6394
C 15.3366 -4.5786 -7.5566
H 15.9687 -4.4647 -6.8542
C 13.5770 -4.9201 -9.6037
H 12.9579 -5.0273 -10.3161
C 13.2806 -4.0848 -8.5382
H 12.4521 -3.6193 -8.5309
H 13.6140 9.0637 10.6375
C 10.5754 8.4865 5.2254
H 11.4307 8.8034 5.5859
H 10.2525 7.7369 5.7683
H 10.6986 8.1904 4.3002
C 11.0494 9.2980 9.6037
H 10.8327 8.7082 10.3161
H 9.3605 8.9741 8.5309
N 13.1282 9.8251 10.7483
H 13.6884 10.5417 10.7852
H 12.6524 9.7719 11.5236
N 3.5792 15.6090 5.9151
H 3.0544 15.6473 5.1732
H 3.0706 15.3730 6.6327
H 3.9530 16.4255 6.0637
C 6.6297 12.7247 5.4269
C 4.6372 14.6128 5.7171
C 12.2059 9.9832 9.6189
C 7.6875 11.6921 5.3444
C 10.4609 10.2956 7.4966
C 7.7565 10.8403 4.2168
C 8.5775 11.5189 6.4125
C 9.5688 9.6087 5.2649
C 9.5135 10.4927 6.3590
C 8.6896 9.8097 4.2003
C 6.8167 11.0735 3.0418
H 6.4612 11.9860 3.0840
H 7.3064 10.9531 2.2022
H 6.0782 10.4325 3.0840
C 5.8894 15.0047 5.3722
H 6.0782 15.9245 5.2254
C 6.8841 14.0622 5.2362
H 7.7621 14.3401 5.0082
C 4.3438 13.2994 5.8925
H 3.4617 13.0273 6.1245
C 8.5054 12.4297 7.6217
H 7.5747 12.5095 7.9141
H 9.0469 12.0532 8.3484
H 8.8481 13.3156 7.3841
C 5.3420 12.3748 5.7318
H 5.1327 11.4542 5.8378
C 12.5112 10.8389 8.6164
H 13.3231 11.3310 8.6394
C 11.6335 10.9926 7.5566
H 11.8509 11.5970 6.8542
C 10.1779 9.4589 8.5382
N 1.9447 -16.2819 10.7483
H 1.0424 -16.3219 10.6375
H 2.2852 -17.1253 10.7852
H 2.1365 -15.8433 11.5236
N 11.7282 -10.9042 5.9151
H 12.0238 -10.4689 5.1732
H 11.7781 -10.3457 6.6327
H 12.2484 -11.6361 6.0637
C 7.7051 -12.1039 5.4269
C 10.3364 -11.3224 5.7171
C 2.5428 -15.5623 9.6189
C 6.2819 -12.5036 5.3444
C 3.6858 -14.2072 7.4966
C 5.5098 -12.1375 4.2168
C 5.6869 -13.1877 6.4125
C 3.5370 -13.0911 5.2649
C 4.3302 -13.4853 6.3590
C 4.1506 -12.4303 4.2003
C 6.1816 -11.4402 3.0418
H 7.1496 -11.5886 3.0840
H 5.8325 -11.8041 2.2022
H 5.9957 -10.4801 3.0840
C 10.0497 -12.6027 5.3722
H 10.7519 -13.2261 5.2254
C 8.7362 -12.9929 5.2362
H 8.5379 -13.8923 5.0082
C 2.0618 -13.4019 5.2254
H 1.9086 -14.3009 5.5859
H 1.5741 -12.7474 5.7683
H 1.7438 -13.3604 4.3002
C 9.3457 -10.4115 5.8925
H 9.5512 -9.5116 6.1245
C 6.5118 -13.5807 7.6217
H 7.0462 -12.8146 7.9141
H 5.9149 -13.8615 8.3484
H 7.1076 -14.3205 7.3841
C 8.0459 -10.8137 5.7318
H 7.3533 -10.1722 5.8378
C 3.1312 -16.2545 8.6164
H 3.1514 -17.2037 8.6394
C 3.7031 -15.5712 7.5566
H 4.1178 -16.0616 6.8542
C 2.5276 -14.2181 9.6037
H 2.1252 -13.7355 10.3161
C 3.1028 -13.5438 8.5382
H 3.0916 -12.5935 8.5309
N -15.0729 6.4568 10.7483
H -15.9735 6.5836 10.7852
H -14.7889 6.0714 11.5236
N -15.3074 -4.7048 5.9151
H -15.0782 -5.1785 5.1732
H -14.8487 -5.0273 6.6327
H -16.2014 -4.7894 6.0637
C -14.3348 -0.6209 5.4269
C -14.9737 -3.2904 5.7171
C -14.7487 5.5790 9.6189
C -13.9694 0.8115 5.3444
C -14.1467 3.9116 7.4966
C -13.2662 1.2971 4.2168
C -14.2643 1.6689 6.4125
C -13.1058 3.4824 5.2649
C -13.8437 2.9926 6.3590
C -12.8402 2.6206 4.2003
C -12.9983 0.3667 3.0418
H -13.6108 -0.3975 3.0840
H -13.1389 0.8509 2.2022
H -12.0739 0.0476 3.0840
C -15.9391 -2.4020 5.3722
H -16.8301 -2.6984 5.2254
C -15.6203 -1.0693 5.2362
H -16.3000 -0.4479 5.0082
C -13.6895 -2.8879 5.8925
H -13.0128 -3.5158 6.1245
C -15.0171 1.1510 7.6217
H -14.6209 0.3051 7.9141
H -14.9619 1.8083 8.3484
H -15.9558 1.0049 7.3841
C -13.3879 -1.5611 5.7318
H -12.4860 -1.2820 5.8378
C -15.6424 5.4155 8.6164
H -16.4745 5.8727 8.6394
C -15.3366 4.5786 7.5566
H -15.9687 4.4647 6.8542
C -13.2806 4.0848 8.5382
H -14.6564 7.2582 10.6375
C -12.6373 4.9153 5.2254
H -13.3393 5.4976 5.5859
H -11.8266 5.0105 5.7683
H -12.4424 5.1701 4.3002
C -13.5770 4.9201 9.6037
H -12.9579 5.0273 10.3161
H -12.4521 3.6193 8.5309
