1728
TAHPMe.N12Cl12 unit cell (heptane omitted)
Cl 5.8660 -3.6845 10.6058
Cl -2.5140 6.3385 8.4388
N 6.9963 -0.7958 10.7483
H 7.8985 -0.8358 10.6375
H 6.6558 -1.6392 10.7852
H 6.8044 -0.3572 11.5236
N -2.7873 4.5820 5.9151
H -3.0829 5.0172 5.1732
H -2.8372 5.1404 6.6327
H -3.3075 3.8500 6.0637
C 1.2358 3.3823 5.4269
C -1.3955 4.1638 5.7171
C 6.3982 -0.0761 9.6189
C 2.6590 2.9825 5.3444
C 5.2551 1.2790 7.4966
C 3.4312 3.3487 4.2168
C 3.2540 2.2984 6.4125
C 5.4039 2.3950 5.2649
C 4.6107 2.0009 6.3590
C 4.7903 3.0559 4.2003
C 2.7593 4.0459 3.0418
H 1.7913 3.8976 3.0840
H 3.1084 3.6820 2.2022
H 2.9452 5.0061 3.0840
C -1.1088 2.8834 5.3722
H -1.8110 2.2601 5.2254
C 0.2048 2.4932 5.2362
H 0.4031 1.5939 5.0082
C 6.8791 2.0843 5.2254
H 7.0323 1.1852 5.5859
H 7.3668 2.7387 5.7683
H 7.1972 2.1257 4.3002
C -0.4048 5.0746 5.8925
H -0.6102 5.9746 6.1245
C 2.4292 1.9054 7.6217
H 1.8947 2.6715 7.9141
H 3.0260 1.6247 8.3484
H 1.8333 1.1656 7.3841
C 0.8950 4.6724 5.7318
H 1.5877 5.3140 5.8378
C 5.8097 -0.7684 8.6164
H 5.7895 -1.7175 8.6394
C 5.2378 -0.0851 7.5566
H 4.8231 -0.5755 6.8542
C 6.4133 1.2680 9.6037
H 6.8158 1.7506 10.3161
C 5.8382 1.9424 8.5382
H 5.8493 2.8927 8.5309
N 8.0873 -17.2104 5.9151
H 7.8581 -17.6840 5.1732
H 7.6287 -17.5328 6.6327
H 8.9813 -17.2949 6.0637
C 7.1147 -13.1264 5.4269
C 7.7536 -15.7960 5.7171
H 6.3907 -12.9030 3.0840
C 8.7190 -14.9075 5.3722
H 9.6100 -15.2039 5.2254
C 8.4002 -13.5748 5.2362
H 9.0799 -12.9534 5.0082
C 6.4694 -15.3934 5.8925
H 5.7928 -16.0213 6.1245
C 6.1679 -14.0666 5.7318
H 5.2659 -13.7876 5.8378
Cl 10.9197 -5.5832 10.6058
Cl -9.7315 10.1397 8.4388
N 7.8528 -6.0487 10.7483
H 7.4363 -5.2473 10.6375
H 8.7535 -5.9219 10.7852
H 7.5689 -6.4341 11.5236
C 7.5286 -6.9265 9.6189
C 6.7493 -11.6941 5.3444
C 6.9266 -8.5940 7.4966
C 6.0462 -11.2084 4.2168
C 7.0443 -10.8367 6.4125
C 5.8857 -9.0231 5.2649
C 6.6236 -9.5129 6.3590
C 5.6202 -9.8850 4.2003
C 5.7782 -12.1388 3.0418
H 5.9188 -11.6546 2.2022
H 4.8538 -12.4580 3.0840
C 5.4172 -7.5902 5.2254
H 6.1192 -7.0080 5.5859
H 4.6065 -7.4950 5.7683
H 5.2223 -7.3355 4.3002
C 7.7970 -11.3545 7.6217
H 7.4008 -12.2004 7.9141
H 7.7418 -10.6973 8.3484
H 8.7357 -11.5006 7.3841
C 8.4223 -7.0900 8.6164
H 9.2544 -6.6329 8.6394
C 8.1166 -7.9269 7.5566
H 8.7486 -8.0409 6.8542
C 6.3569 -7.5854 9.6037
H 5.7378 -7.4782 10.3161
C 6.0605 -8.4207 8.5382
H 5.2320 -8.8862 8.5309
Cl 10.0371 -0.2572 10.6058
Cl -9.4147 1.9885 8.4388
N 11.9737 -2.6805 10.7483
H 11.4879 -3.4418 10.6375
H 11.4136 -1.9639 10.7852
H 12.4495 -2.7336 11.5236
C 12.8960 -2.5223 9.6189
C 17.4145 -0.8134 5.3444
C 14.6411 -2.2099 7.4966
C 17.3455 -1.6652 4.2168
C 16.5245 -0.9867 6.4125
C 15.5332 -2.8968 5.2649
C 15.5884 -2.0129 6.3590
C 16.4123 -2.6959 4.2003
C 18.2852 -1.4320 3.0418
H 17.7955 -1.5524 2.2022
H 19.0238 -2.0730 3.0840
C 14.5265 -4.0190 5.2254
H 13.6712 -3.7022 5.5859
H 14.8494 -4.7686 5.7683
H 14.4033 -4.3152 4.3002
C 16.5966 -0.0758 7.6217
H 17.5273 0.0039 7.9141
H 16.0550 -0.4523 8.3484
H 16.2538 0.8101 7.3841
C 12.5907 -1.6666 8.6164
H 11.7788 -1.1745 8.6394
C 13.4684 -1.5129 7.5566
H 13.2511 -0.9086 6.8542
C 14.0525 -3.2075 9.6037
H 14.2692 -3.7973 10.3161
C 14.9240 -3.0466 8.5382
H 15.7415 -3.5314 8.5309
N 21.5227 3.1035 5.9151
H 22.0475 3.1418 5.1732
H 22.0313 2.8675 6.6327
H 21.1489 3.9200 6.0637
C 18.4722 0.2192 5.4269
C 20.4647 2.1072 5.7171
H 18.6408 -0.5195 3.0840
C 19.2125 2.4991 5.3722
H 19.0238 3.4189 5.2254
C 18.2178 1.5566 5.2362
H 17.3398 1.8346 5.0082
C 20.7582 0.7939 5.8925
H 21.6402 0.5218 6.1245
C 19.7599 -0.1307 5.7318
H 19.9692 -1.0513 5.8378
Cl -6.1239 3.2378 11.1123
Cl 6.7463 0.9920 13.2793
N -4.1873 5.6611 10.9698
H -4.6731 6.4224 11.0805
H -4.7474 4.9445 10.9329
H -3.7115 5.7142 10.1945
N 5.3617 -0.1229 15.8029
H 5.8865 -0.1612 16.5448
H 5.8703 0.1131 15.0854
H 4.9879 -0.9394 15.6544
C 2.3112 2.7614 16.2911
C 4.3037 0.8734 16.0010
C -3.2650 5.5029 12.0991
C 1.2535 3.7940 16.3737
C -1.5199 5.1905 14.2214
C 1.1845 4.6458 17.5013
C 0.3635 3.9673 15.3056
C -0.6278 5.8774 16.4532
C -0.5726 4.9935 15.3590
C 0.2513 5.6765 17.5178
C 2.1242 4.4126 18.6762
H 2.4798 3.5001 18.6341
H 1.6345 4.5330 19.5158
H 2.8628 5.0536 18.6341
C 3.0515 0.4815 16.3459
H 2.8628 -0.4383 16.4927
C 2.0568 1.4240 16.4818
H 1.1788 1.1460 16.7099
C -1.6345 6.9996 16.4927
H -2.4898 6.6828 16.1322
H -1.3116 7.7492 15.9497
H -1.7577 7.2958 17.4179
C 4.5972 2.1867 15.8255
H 5.4792 2.4588 15.5936
C 0.4356 3.0564 14.0963
H 1.3663 2.9767 13.8040
H -0.1060 3.4329 13.3696
H 0.0928 2.1705 14.3339
C 3.5989 3.1113 15.9862
H 3.8082 4.0319 15.8802
C -3.5703 4.6472 13.1016
H -4.3822 4.1551 13.0786
C -2.6926 4.4935 14.1615
H -2.9099 3.8892 14.8638
C -2.1085 6.1881 12.1143
H -1.8918 6.7779 11.4020
C -1.2370 6.0272 13.1798
H -0.4195 6.5120 13.1872
N -18.9483 -1.6014 15.8029
H -19.2439 -2.0367 16.5448
H -18.9982 -2.1598 15.0854
H -19.4685 -0.8694 15.6544
C -14.9252 -0.4017 16.2911
C -17.5565 -1.1832 16.0010
H -14.3697 -0.9170 18.6341
C -17.2698 0.0972 16.3459
H -17.9720 0.7205 16.4927
C -15.9562 0.4874 16.4818
H -15.7579 1.3867 16.7099
C -16.5658 -2.0940 15.8255
H -16.7712 -2.9940 15.5936
C -15.2660 -1.6918 15.9862
H -14.5733 -2.3334 15.8802
Cl -10.2950 6.6651 11.1123
Cl 13.6470 -3.3579 13.2793
N -9.1647 3.7764 10.9698
H -8.2625 3.8164 11.0805
H -9.5052 4.6198 10.9329
H -9.3566 3.3377 10.1945
C -9.7628 3.0567 12.0991
C -13.5020 -0.0019 16.3737
C -10.9059 1.7016 14.2214
C -12.7298 -0.3681 17.5013
C -12.9070 0.6822 15.3056
C -10.7571 0.5856 16.4532
C -11.5503 0.9797 15.3590
C -11.3707 -0.0753 17.5178
C -13.4017 -1.0653 18.6762
H -13.0526 -0.7015 19.5158
H -13.2158 -2.0255 18.6341
C -9.2819 0.8963 16.4927
H -9.1287 1.7954 16.1322
H -8.7942 0.2419 15.9497
H -8.9638 0.8549 17.4179
C -13.7318 1.0752 14.0963
H -14.2663 0.3090 13.8040
H -13.1350 1.3559 13.3696
H -14.3277 1.8150 14.3339
C -10.3513 3.7489 13.1016
H -10.3715 4.6981 13.0786
C -10.9232 3.0657 14.1615
H -11.3379 3.5561 14.8638
C -9.7477 1.7126 12.1143
H -9.3452 1.2300 11.4020
C -10.3228 1.0382 13.1798
H -10.3117 0.0879 13.1872
Cl -5.2413 8.5638 11.1123
Cl 6.4295 -7.1591 13.2793
N -8.3082 9.0293 10.9698
H -8.7247 8.2279 11.0805
H -7.4075 8.9025 10.9329
H -8.5921 9.4147 10.1945
C -8.6324 9.9071 12.0991
C -9.4117 14.6747 16.3737
C -9.2344 11.5746 14.2214
C -10.1148 14.1890 17.5013
C -9.1167 13.8173 15.3056
C -10.2753 12.0037 16.4532
C -9.5374 12.4935 15.3590
C -10.5408 12.8656 17.5178
C -10.3828 15.1194 18.6762
H -10.2422 14.6352 19.5158
H -11.3072 15.4385 18.6341
C -10.7438 10.5708 16.4927
H -10.0418 9.9886 16.1322
H -11.5545 10.4756 15.9497
H -10.9387 10.3161 17.4179
C -8.3640 14.3351 14.0963
H -8.7602 15.1810 13.8040
H -8.4192 13.6779 13.3696
H -7.4253 14.4812 14.3339
C -7.7387 10.0706 13.1016
H -6.9066 9.6135 13.0786
C -8.0444 10.9075 14.1615
H -7.4124 11.0215 14.8638
C -9.8041 10.5660 12.1143
H -10.4232 10.4588 11.4020
C -10.1005 11.4013 13.1798
H -10.9290 11.8668 13.1872
N -8.0737 20.1910 15.8029
H -8.3029 20.6646 16.5448
H -8.5323 20.5134 15.0854
H -7.1797 20.2755 15.6544
C -9.0463 16.1070 16.2911
C -8.4074 18.7766 16.0010
H -9.7703 15.8836 18.6341
C -7.4420 17.8881 16.3459
H -6.5510 18.1845 16.4927
C -7.7608 16.5554 16.4818
H -7.0811 15.9340 16.7099
C -9.6916 18.3740 15.8255
H -10.3682 19.0019 15.5936
C -9.9931 17.0472 15.9862
H -10.8951 16.7682 15.8802
Cl -4.1451 6.6651 -10.6058
Cl 4.2348 -3.3579 -8.4388
N -5.2754 3.7764 -10.7483
H -6.1777 3.8164 -10.6375
H -4.9349 4.6198 -10.7852
H -5.0836 3.3377 -11.5236
N 4.5081 -1.6014 -5.9151
H 4.8037 -2.0367 -5.1732
H 4.5581 -2.1598 -6.6327
H 5.0283 -0.8694 -6.0637
C 0.4850 -0.4017 -5.4269
C 3.1163 -1.1832 -5.7171
C -4.6773 3.0567 -9.6189
C -0.9381 -0.0019 -5.3444
C -3.5342 1.7016 -7.4966
C -1.7103 -0.3681 -4.2168
C -1.5332 0.6822 -6.4125
C -3.6831 0.5856 -5.2649
C -2.8899 0.9797 -6.3590
C -3.0694 -0.0753 -4.2003
C -1.0385 -1.0653 -3.0418
H -0.0704 -0.9170 -3.0840
H -1.3876 -0.7015 -2.2022
H -1.2243 -2.0255 -3.0840
C 2.8296 0.0972 -5.3722
H 3.5318 0.7205 -5.2254
C 1.5161 0.4874 -5.2362
H 1.3178 1.3867 -5.0082
C -5.1583 0.8963 -5.2254
H -5.3115 1.7954 -5.5859
H -5.6460 0.2419 -5.7683
H -5.4763 0.8549 -4.3002
C 2.1257 -2.0940 -5.8925
H 2.3311 -2.9940 -6.1245
C -0.7083 1.0752 -7.6217
H -0.1739 0.3090 -7.9141
H -1.3052 1.3559 -8.3484
H -0.1125 1.8150 -7.3841
C 0.8258 -1.6918 -5.7318
H 0.1332 -2.3334 -5.8378
C -4.0889 3.7489 -8.6164
H -4.0687 4.6981 -8.6394
C -3.5169 3.0657 -7.5566
H -3.1023 3.5561 -6.8542
C -4.6925 1.7126 -9.6037
H -5.0949 1.2300 -10.3161
C -4.1173 1.0382 -8.5382
H -4.1285 0.0879 -8.5309
Cl -9.1988 8.5638 -10.6058
Cl 11.4523 -7.1591 -8.4388
N -6.1320 9.0293 -10.7483
H -5.7155 8.2279 -10.6375
H -7.0326 8.9025 -10.7852
H -5.8480 9.4147 -11.5236
C -5.8078 9.9071 -9.6189
C -5.0285 14.6747 -5.3444
C -5.2058 11.5746 -7.4966
C -4.3253 14.1890 -4.2168
C -5.3234 13.8173 -6.4125
C -4.1648 12.0037 -5.2649
C -4.9028 12.4935 -6.3590
C -3.8993 12.8656 -4.2003
C -4.0574 15.1194 -3.0418
H -4.1980 14.6352 -2.2022
H -3.1330 15.4385 -3.0840
C -3.6963 10.5708 -5.2254
H -4.3984 9.9886 -5.5859
H -2.8857 10.4756 -5.7683
H -3.5014 10.3161 -4.3002
C -6.0762 14.3351 -7.6217
H -5.6799 15.1810 -7.9141
H -6.0209 13.6779 -8.3484
H -7.0148 14.4812 -7.3841
C -6.7015 10.0706 -8.6164
H -7.5336 9.6135 -8.6394
C -6.3957 10.9075 -7.5566
H -7.0278 11.0215 -6.8542
C -4.6361 10.5660 -9.6037
H -4.0170 10.4588 -10.3161
C -4.3397 11.4013 -8.5382
H -3.5111 11.8668 -8.5309
N -6.3665 20.1910 -5.9151
H -6.1373 20.6646 -5.1732
H -5.9078 20.5134 -6.6327
H -7.2605 20.2755 -6.0637
C -5.3939 16.1070 -5.4269
C -6.0327 18.7766 -5.7171
H -4.6699 15.8836 -3.0840
C -6.9982 17.8881 -5.3722
H -7.8891 18.1845 -5.2254
C -6.6793 16.5554 -5.2362
H -7.3591 15.9340 -5.0082
C -4.7486 18.3740 -5.8925
H -4.0719 19.0019 -6.1245
C -4.4470 17.0472 -5.7318
H -3.5451 16.7682 -5.8378
N -19.8019 -0.1229 -5.9151
H -20.3266 -0.1612 -5.1732
H -20.3105 0.1131 -6.6327
H -19.4281 -0.9394 -6.0637
C -16.7513 2.7614 -5.4269
C -18.7438 0.8734 -5.7171
H -16.9199 3.5001 -3.0840
C -17.4917 0.4815 -5.3722
H -17.3029 -0.4383 -5.2254
C -16.4970 1.4240 -5.2362
H -15.6189 1.1460 -5.0082
C -19.0373 2.1867 -5.8925
H -19.9194 2.4588 -6.1245
C -18.0391 3.1113 -5.7318
H -18.2483 4.0319 -5.8378
Cl -8.3163 3.2378 -10.6058
Cl 11.1356 0.9920 -8.4388
N -10.2528 5.6611 -10.7483
H -9.7670 6.4224 -10.6375
H -9.6927 4.9445 -10.7852
H -10.7286 5.7142 -11.5236
C -11.1752 5.5029 -9.6189
C -15.6936 3.7940 -5.3444
C -12.9202 5.1905 -7.4966
C -15.6246 4.6458 -4.2168
C -14.8036 3.9673 -6.4125
C -13.8123 5.8774 -5.2649
C -13.8676 4.9935 -6.3590
C -14.6915 5.6765 -4.2003
C -16.5644 4.4126 -3.0418
H -16.0747 4.5330 -2.2022
H -17.3029 5.0536 -3.0840
C -12.8056 6.9996 -5.2254
H -11.9504 6.6828 -5.5859
H -13.1285 7.7492 -5.7683
H -12.6825 7.2958 -4.3002
C -14.8757 3.0564 -7.6217
H -15.8064 2.9767 -7.9141
H -14.3341 3.4329 -8.3484
H -14.5329 2.1705 -7.3841
C -10.8699 4.6472 -8.6164
H -10.0579 4.1551 -8.6394
C -11.7476 4.4935 -7.5566
H -11.5302 3.8892 -6.8542
C -12.3316 6.1881 -9.6037
H -12.5484 6.7779 -10.3161
C -13.2032 6.0272 -8.5382
H -14.0206 6.5120 -8.5309
Cl 7.8447 -0.2572 -11.1123
Cl -5.0254 1.9885 -13.2793
N 5.9082 -2.6805 -10.9698
H 6.3940 -3.4418 -11.0805
H 6.4683 -1.9639 -10.9329
H 5.4324 -2.7336 -10.1945
N -3.6409 3.1035 -15.8029
H -4.1656 3.1418 -16.5448
H -4.1495 2.8675 -15.0854
H -3.2671 3.9200 -15.6544
C -0.5903 0.2192 -16.2911
C -2.5828 2.1072 -16.0010
C 4.9858 -2.5223 -12.0991
C 0.4674 -0.8134 -16.3737
C 3.2408 -2.2099 -14.2214
C 0.5364 -1.6652 -17.5013
C 1.3574 -0.9867 -15.3056
C 2.3487 -2.8968 -16.4532
C 2.2934 -2.0129 -15.3590
C 1.4695 -2.6959 -17.5178
C -0.4034 -1.4320 -18.6762
H -0.7589 -0.5195 -18.6341
H 0.0863 -1.5524 -19.5158
H -1.1419 -2.0730 -18.6341
C -1.3307 2.4991 -16.3459
H -1.1419 3.4189 -16.4927
C -0.3360 1.5566 -16.4818
H 0.5421 1.8346 -16.7099
C 3.3554 -4.0190 -16.4927
H 4.2106 -3.7022 -16.1322
H 3.0325 -4.7686 -15.9497
H 3.4785 -4.3152 -17.4179
C -2.8763 0.7939 -15.8255
H -3.7584 0.5218 -15.5936
C 1.2853 -0.0758 -14.0963
H 0.3546 0.0039 -13.8040
H 1.8269 -0.4523 -13.3696
H 1.6281 0.8101 -14.3339
C -1.8781 -0.1307 -15.9862
H -2.0873 -1.0513 -15.8802
C 5.2911 -1.6666 -13.1016
H 6.1031 -1.1745 -13.0786
C 4.4134 -1.5129 -14.1615
H 4.6308 -0.9086 -14.8638
C 3.8294 -3.2075 -12.1143
H 3.6126 -3.7973 -11.4020
C 2.9578 -3.0466 -13.1798
H 2.1404 -3.5314 -13.1872
Cl 12.0159 -3.6845 -11.1123
Cl -11.9262 6.3385 -13.2793
N 10.8856 -0.7958 -10.9698
H 9.9833 -0.8358 -11.0805
H 11.2261 -1.6392 -10.9329
H 11.0774 -0.3572 -10.1945
C 11.4837 -0.0761 -12.0991
C 15.2229 2.9825 -16.3737
C 12.6268 1.2790 -14.2214
C 14.4507 3.3487 -17.5013
C 14.6278 2.2984 -15.3056
C 12.4779 2.3950 -16.4532
C 13.2711 2.0009 -15.3590
C 13.0916 3.0559 -17.5178
C 15.1225 4.0459 -18.6762
H 14.7734 3.6820 -19.5158
H 14.9367 5.0061 -18.6341
C 11.0027 2.0843 -16.4927
H 10.8495 1.1852 -16.1322
H 10.5150 2.7387 -15.9497
H 10.6847 2.1257 -17.4179
C 15.4527 1.9054 -14.0963
H 15.9871 2.6715 -13.8040
H 14.8558 1.6247 -13.3696
H 16.0485 1.1656 -14.3339
C 12.0721 -0.7684 -13.1016
H 12.0923 -1.7175 -13.0786
C 12.6441 -0.0851 -14.1615
H 13.0587 -0.5755 -14.8638
C 11.4685 1.2680 -12.1143
H 11.0661 1.7506 -11.4020
C 12.0437 1.9424 -13.1798
H 12.0325 2.8927 -13.1872
N 20.6691 4.5820 -15.8029
H 20.9647 5.0172 -16.5448
H 20.7191 5.1404 -15.0854
H 21.1893 3.8500 -15.6544
C 16.6460 3.3823 -16.2911
C 19.2773 4.1638 -16.0010
H 16.0906 3.8976 -18.6341
C 18.9906 2.8834 -16.3459
H 19.6928 2.2601 -16.4927
C 17.6771 2.4932 -16.4818
H 17.4788 1.5939 -16.7099
C 18.2867 5.0746 -15.8255
H 18.4921 5.9746 -15.5936
C 16.9868 4.6724 -15.9862
H 16.2942 5.3140 -15.8802
N 9.7945 -17.2104 -15.8029
H 10.0237 -17.6840 -16.5448
H 10.2532 -17.5328 -15.0854
H 8.9005 -17.2949 -15.6544
C 10.7671 -13.1264 -16.2911
C 10.1283 -15.7960 -16.0010
H 11.4911 -12.9030 -18.6341
C 9.1628 -14.9075 -16.3459
H 8.2719 -15.2039 -16.4927
C 9.4817 -13.5748 -16.4818
H 8.8019 -12.9534 -16.7099
C 11.4124 -15.3934 -15.8255
H 12.0891 -16.0213 -15.5936
C 11.7140 -14.0666 -15.9862
H 12.6159 -13.7876 -15.8802
Cl 6.9622 -5.5832 -11.1123
Cl -4.7087 10.1397 -13.2793
N 10.0290 -6.0487 -10.9698
H 10.4455 -5.2473 -11.0805
H 9.1284 -5.9219 -10.9329
H 10.3130 -6.4341 -10.1945
C 10.3532 -6.9265 -12.0991
C 11.1325 -11.6941 -16.3737
C 10.9552 -8.5940 -14.2214
C 11.8357 -11.2084 -17.5013
C 10.8376 -10.8367 -15.3056
C 11.9962 -9.0231 -16.4532
C 11.2582 -9.5129 -15.3590
C 12.2617 -9.8850 -17.5178
C 12.1036 -12.1388 -18.6762
H 11.9630 -11.6546 -19.5158
H 13.0280 -12.4580 -18.6341
C 12.4647 -7.5902 -16.4927
H 11.7626 -7.0080 -16.1322
H 13.2753 -7.4950 -15.9497
H 12.6596 -7.3355 -17.4179
C 10.0848 -11.3545 -14.0963
H 10.4811 -12.2004 -13.8040
H 10.1401 -10.6973 -13.3696
H 9.1462 -11.5006 -14.3339
C 9.4595 -7.0900 -13.1016
H 8.6274 -6.6329 -13.0786
C 9.7653 -7.9269 -14.1615
H 9.1332 -8.0409 -14.8638
C 11.5249 -7.5854 -12.1143
H 12.1440 -7.4782 -11.4020
C 11.8213 -8.4207 -13.1798
H 12.6499 -8.8862 -13.1872
Cl -10.2950 5.6460 -18.3516
Cl -2.5140 -12.3227 -20.5186
N -18.9483 13.9125 20.3938
H -19.2439 14.3478 19.6519
H -18.9982 14.4710 21.1114
H -19.4685 13.1806 20.5424
C -14.9252 12.7128 19.9056
C -17.5565 13.4943 20.1958
C -13.5020 12.3131 19.8231
C -12.7298 12.6792 18.6955
C -12.9070 11.6290 20.8912
C -10.7571 11.7255 19.7436
C -11.5503 11.3314 20.8377
C -11.3707 12.3864 18.6790
C -13.4017 13.3765 17.5205
H -14.3697 13.2281 17.5627
H -13.0526 13.0126 16.6809
H -13.2158 14.3366 17.5627
C -17.2698 12.2140 19.8509
H -17.9720 11.5906 19.7041
C -15.9562 11.8238 19.7149
H -15.7579 10.9244 19.4869
C -9.2819 11.4148 19.7041
H -9.1287 10.5157 20.0646
H -8.7942 12.0693 20.2470
H -8.9638 11.4563 18.7789
C -16.5658 14.4052 20.3712
H -16.7712 15.3051 20.6032
C -15.2660 14.0029 20.2105
H -14.5733 14.6445 20.3165
H -11.3379 8.7551 21.3329
N -9.1647 8.5348 25.2270
H -8.2625 8.4947 25.1162
H -9.5052 7.6914 25.2639
H -9.3566 8.9734 26.0023
C -9.7628 9.2544 24.0976
C -10.9059 10.6095 21.9753
C -13.7318 11.2360 22.1004
H -14.2663 12.0021 22.3928
H -13.1350 10.9552 22.8271
H -14.3277 10.4962 21.8628
C -10.3513 8.5622 23.0951
H -10.3715 7.6130 23.1181
C -10.9232 9.2455 22.0353
C -9.7477 10.5986 24.0824
H -9.3452 11.0812 24.7948
C -10.3228 11.2729 23.0169
H -10.3117 12.2232 23.0096
Cl -5.2413 3.7474 -18.3516
Cl 22.5905 -8.5214 -20.5186
N -8.0737 -7.8798 20.3938
H -8.3029 -8.3534 19.6519
H -8.5323 -8.2023 21.1114
H -7.1797 -7.9644 20.5424
C -9.0463 -3.7958 19.9056
C -8.4074 -6.4654 20.1958
C -9.4117 -2.3635 19.8231
C -10.1148 -1.8778 18.6955
C -9.1167 -1.5061 20.8912
C -10.2753 0.3075 19.7436
C -9.5374 -0.1824 20.8377
C -10.5408 -0.5544 18.6790
C -10.3828 -2.8083 17.5205
H -9.7703 -3.5725 17.5627
H -10.2422 -2.3240 16.6809
H -11.3072 -3.1274 17.5627
C -7.4420 -5.5769 19.8509
H -6.5510 -5.8734 19.7041
C -7.7608 -4.2443 19.7149
H -7.0811 -3.6228 19.4869
C -10.7438 1.7404 19.7041
H -10.0418 2.3226 20.0646
H -11.5545 1.8355 20.2470
H -10.9387 1.9951 18.7789
C -9.6916 -6.0629 20.3712
H -10.3682 -6.6907 20.6032
C -9.9931 -4.7361 20.2105
H -10.8951 -4.4570 20.3165
H -7.4124 1.2897 21.3329
N -8.3082 3.2819 25.2270
H -8.7247 4.0833 25.1162
H -7.4075 3.4087 25.2639
H -8.5921 2.8964 26.0023
C -8.6324 2.4040 24.0976
C -9.2344 0.7366 21.9753
C -8.3640 -2.0240 22.1004
H -8.7602 -2.8699 22.3928
H -8.4192 -1.3667 22.8271
H -7.4253 -2.1701 21.8628
C -7.7387 2.2406 23.0951
H -6.9066 2.6977 23.1181
C -8.0444 1.4036 22.0353
C -9.8041 1.7451 24.0824
H -10.4232 1.8523 24.7948
C -10.1005 0.9098 23.0169
H -10.9290 0.4443 23.0096
Cl -6.1239 9.0733 -18.3516
Cl 6.7463 11.3191 -20.5186
N 5.3617 12.4340 20.3938
H 5.8865 12.4724 19.6519
H 5.8703 12.1980 21.1114
H 4.9879 13.2505 20.5424
C 2.3112 9.5498 19.9056
C 4.3037 11.4378 20.1958
C 1.2535 8.5171 19.8231
C 1.1845 7.6654 18.6955
C 0.3635 8.3439 20.8912
C -0.6278 6.4337 19.7436
C -0.5726 7.3177 20.8377
C 0.2513 6.6347 18.6790
C 2.1242 7.8985 17.5205
H 2.4798 8.8111 17.5627
H 1.6345 7.7782 16.6809
H 2.8628 7.2575 17.5627
C 3.0515 11.8297 19.8509
H 2.8628 12.7495 19.7041
C 2.0568 10.8872 19.7149
H 1.1788 11.1652 19.4869
C -1.6345 5.3115 19.7041
H -2.4898 5.6284 20.0646
H -1.3116 4.5619 20.2470
H -1.7577 5.0154 18.7789
C 4.5972 10.1244 20.3712
H 5.4792 9.8523 20.6032
C 3.5989 9.1999 20.2105
H 3.8082 8.2792 20.3165
H -2.9099 8.4220 21.3329
N -4.1873 6.6501 25.2270
H -4.6731 5.8887 25.1162
H -4.7474 7.3667 25.2639
H -3.7115 6.5969 26.0023
C -3.2650 6.8082 24.0976
C -1.5199 7.1206 21.9753
C 0.4356 9.2547 22.1004
H 1.3663 9.3345 22.3928
H -0.1060 8.8782 22.8271
H 0.0928 10.1407 21.8628
C -3.5703 7.6640 23.0951
H -4.3822 8.1560 23.1181
C -2.6926 7.8176 22.0353
C -2.1085 6.1230 24.0824
H -1.8918 5.5332 24.7948
C -1.2370 6.2840 23.0169
H -0.4195 5.7991 23.0096
N -4.1873 -13.0001 -17.9876
H -4.7474 -13.7166 -18.0245
H -3.7115 -12.9469 -18.7629
N 5.3617 -18.7840 -13.1545
H 5.8865 -18.8223 -12.4126
H 5.8703 -18.5480 -13.8720
H 4.9879 -19.6005 -13.3030
C 2.3112 -15.8997 -12.6663
C 4.3037 -17.7878 -12.9564
C -3.2650 -13.1582 -16.8583
C 1.2535 -14.8671 -12.5837
C -1.5199 -13.4706 -14.7360
C 1.1845 -14.0153 -11.4561
C 0.3635 -14.6938 -13.6518
C -0.6278 -12.7837 -12.5042
C -0.5726 -13.6677 -13.5984
C 0.2513 -12.9847 -11.4396
C 2.1242 -14.2485 -10.2812
H 2.4798 -15.1610 -10.3233
H 1.6345 -14.1281 -9.4416
H 2.8628 -13.6075 -10.3233
C 3.0515 -18.1796 -12.6115
H 2.8628 -19.0994 -12.4647
C 2.0568 -17.2372 -12.4756
H 1.1788 -17.5151 -12.2475
C 4.5972 -16.4744 -13.1319
H 5.4792 -16.2023 -13.3638
C 0.4356 -15.6047 -14.8611
H 1.3663 -15.6845 -15.1534
H -0.1060 -15.2282 -15.5878
H 0.0928 -16.4906 -14.6235
C 3.5989 -15.5498 -12.9712
H 3.8082 -14.6292 -13.0772
C -3.5703 -14.0139 -15.8558
H -4.3822 -14.5060 -15.8788
C -2.6926 -14.1676 -14.7959
H -2.9099 -14.7719 -14.0936
C -1.2370 -12.6339 -15.7776
Cl 10.0371 12.5684 -17.8451
Cl -9.4147 10.3226 -15.6781
H -4.6731 -12.2387 -17.8769
C -1.6345 -11.6615 -12.4647
H -2.4898 -11.9784 -12.8252
H -1.3116 -10.9119 -13.0077
H -1.7577 -11.3653 -11.5395
C -2.1085 -12.4730 -16.8431
H -1.8918 -11.8832 -17.5554
H -0.4195 -12.1491 -15.7702
Cl 22.0270 -11.9960 -17.8451
Cl -2.5140 5.9727 -15.6781
N 6.9963 13.1069 -17.9876
H 7.8985 13.1470 -17.8769
H 6.6558 13.9503 -18.0245
H 6.8044 12.6683 -18.7629
N -2.7873 7.7292 -13.1545
H -3.0829 7.2939 -12.4126
H -2.8372 7.1707 -13.8720
H -3.3075 8.4612 -13.3030
C 1.2358 8.9289 -12.6663
C -1.3955 8.1474 -12.9564
C 6.3982 12.3873 -16.8583
C 2.6590 9.3286 -12.5837
C 5.2551 11.0322 -14.7360
C 3.4312 8.9625 -11.4561
C 3.2540 10.0127 -13.6518
C 5.4039 9.9162 -12.5042
C 4.6107 10.3103 -13.5984
C 4.7903 9.2553 -11.4396
C 2.7593 8.2652 -10.2812
H 1.7913 8.4136 -10.3233
H 3.1084 8.6291 -9.4416
H 2.9452 7.3051 -10.3233
C -1.1088 9.4277 -12.6115
H -1.8110 10.0511 -12.4647
C 0.2048 9.8179 -12.4756
H 0.4031 10.7173 -12.2475
C 6.8791 10.2269 -12.4647
H 7.0323 11.1260 -12.8252
H 7.3668 9.5724 -13.0077
H 7.1972 10.1854 -11.5395
C -0.4048 7.2365 -13.1319
H -0.6102 6.3366 -13.3638
C 2.4292 10.4057 -14.8611
H 1.8947 9.6396 -15.1534
H 3.0260 10.6865 -15.5878
H 1.8333 11.1456 -14.6235
C 0.8950 7.6388 -12.9712
H 1.5877 6.9972 -13.0772
C 5.8097 13.0795 -15.8558
H 5.7895 14.0287 -15.8788
C 5.2378 12.3962 -14.7959
H 4.8231 12.8866 -14.0936
C 6.4133 11.0431 -16.8431
H 6.8158 10.5605 -17.5554
C 5.8382 10.3688 -15.7776
H 5.8493 9.4185 -15.7702
H -8.7247 -10.4332 -17.8769
C -10.7438 -8.0903 -12.4647
H -10.0418 -8.6725 -12.8252
H -11.5545 -8.1855 -13.0077
H -10.9387 -8.3450 -11.5395
C -9.8041 -8.0951 -16.8431
H -10.4232 -8.2023 -17.5554
H -10.9290 -6.7943 -15.7702
Cl -5.2413 -10.0973 -17.8451
Cl -9.7315 2.1714 -15.6781
N -8.3082 -9.6318 -17.9876
H -7.4075 -9.7586 -18.0245
H -8.5921 -9.2464 -18.7629
N -8.0737 1.5299 -13.1545
H -8.3029 2.0035 -12.4126
H -8.5323 1.8523 -13.8720
H -7.1797 1.6144 -13.3030
C -9.0463 -2.5541 -12.6663
C -8.4074 0.1154 -12.9564
C -8.6324 -8.7540 -16.8583
C -9.4117 -3.9865 -12.5837
C -9.2344 -7.0865 -14.7360
C -10.1148 -4.4721 -11.4561
C -9.1167 -4.8438 -13.6518
C -10.2753 -6.6574 -12.5042
C -9.5374 -6.1676 -13.5984
C -10.5408 -5.7956 -11.4396
C -10.3828 -3.5417 -10.2812
H -9.7703 -2.7775 -10.3233
H -10.2422 -4.0259 -9.4416
H -11.3072 -3.2226 -10.3233
C -7.4420 -0.7730 -12.6115
H -6.5510 -0.4766 -12.4647
C -7.7608 -2.1057 -12.4756
H -7.0811 -2.7271 -12.2475
C -9.6916 -0.2871 -13.1319
H -10.3682 0.3408 -13.3638
C -8.3640 -4.3260 -14.8611
H -8.7602 -3.4801 -15.1534
H -8.4192 -4.9832 -15.5878
H -7.4253 -4.1799 -14.6235
C -9.9931 -1.6139 -12.9712
H -10.8951 -1.8930 -13.0772
C -7.7387 -8.5905 -15.8558
H -6.9066 -9.0476 -15.8788
C -8.0444 -7.7536 -14.7959
H -7.4124 -7.6397 -14.0936
C -10.1005 -7.2598 -15.7776
H -22.3387 13.1470 3.8412
C -21.3193 10.2269 9.2533
H -21.4725 11.1260 8.8928
H -21.8070 9.5724 8.7104
H -21.6373 10.1854 10.1785
C -20.8535 11.0431 4.8750
H -21.2559 10.5605 4.1626
H -20.2895 9.4185 5.9478
Cl -4.1451 -11.9960 3.8729
Cl -11.9262 5.9727 6.0399
N -21.4364 13.1069 3.7304
H -21.0959 13.9503 3.6935
H -21.2446 12.6683 2.9551
N -11.6529 7.7292 8.5636
H -11.3573 7.2939 9.3055
H -11.6029 7.1707 7.8460
H -11.1327 8.4612 8.4150
C -15.6760 8.9289 9.0518
C -13.0447 8.1474 8.7616
C -20.8383 12.3873 4.8598
C -17.0991 9.3286 9.1343
C -19.6952 11.0322 6.9821
C -17.8713 8.9625 10.2619
C -17.6942 10.0127 8.0662
C -19.8441 9.9162 9.2138
C -19.0509 10.3103 8.1197
C -19.2304 9.2553 10.2784
C -17.1995 8.2652 11.4369
H -16.2314 8.4136 11.3947
H -17.5486 8.6291 12.2765
H -17.3853 7.3051 11.3947
C -13.3314 9.4277 9.1065
H -12.6292 10.0511 9.2533
C -14.6449 9.8179 9.2425
H -14.8432 10.7173 9.4705
C -14.0353 7.2365 8.5862
H -13.8299 6.3366 8.3542
C -16.8693 10.4057 6.8570
H -16.3349 9.6396 6.5646
H -17.4662 10.6865 6.1303
H -16.2735 11.1456 7.0946
C -15.3352 7.6388 8.7469
H -16.0278 6.9972 8.6409
C -20.2499 13.0795 5.8623
H -20.2297 14.0287 5.8393
C -19.6779 12.3962 6.9221
H -19.2633 12.8866 7.6245
C -20.2783 10.3688 5.9405
Cl 23.1232 -10.0973 3.8729
Cl -4.7087 2.1714 6.0399
N -6.1320 -9.6318 3.7304
H -5.7155 -10.4332 3.8412
H -7.0326 -9.7586 3.6935
H -5.8480 -9.2464 2.9551
N -6.3665 1.5299 8.5636
H -6.1373 2.0035 9.3055
H -5.9078 1.8523 7.8460
H -7.2605 1.6144 8.4150
C -5.3939 -2.5541 9.0518
C -6.0327 0.1154 8.7616
C -5.8078 -8.7540 4.8598
C -5.0285 -3.9865 9.1343
C -5.2058 -7.0865 6.9821
C -4.3253 -4.4721 10.2619
C -5.3234 -4.8438 8.0662
C -4.1648 -6.6574 9.2138
C -4.9028 -6.1676 8.1197
C -3.8993 -5.7956 10.2784
C -4.0574 -3.5417 11.4369
H -4.6699 -2.7775 11.3947
H -4.1980 -4.0259 12.2765
H -3.1330 -3.2226 11.3947
C -6.9982 -0.7730 9.1065
H -7.8891 -0.4766 9.2533
C -6.6793 -2.1057 9.2425
H -7.3591 -2.7271 9.4705
C -3.6963 -8.0903 9.2533
H -4.3984 -8.6725 8.8928
H -2.8857 -8.1855 8.7104
H -3.5014 -8.3450 10.1785
C -4.7486 -0.2871 8.5862
H -4.0719 0.3408 8.3542
C -6.0762 -4.3260 6.8570
H -5.6799 -3.4801 6.5646
H -6.0209 -4.9832 6.1303
H -7.0148 -4.1799 7.0946
C -4.4470 -1.6139 8.7469
H -3.5451 -1.8930 8.6409
C -6.7015 -8.5905 5.8623
H -7.5336 -9.0476 5.8393
C -6.3957 -7.7536 6.9221
H -7.0278 -7.6397 7.6245
C -4.6361 -8.0951 4.8750
H -4.0170 -8.2023 4.1626
C -4.3397 -7.2598 5.9405
H -3.5111 -6.7943 5.9478
N 22.0692 -13.0001 3.7304
H 22.6293 -13.7166 3.6935
H 21.5934 -12.9469 2.9551
N 12.5201 -18.7840 8.5636
H 11.9954 -18.8223 9.3055
H 12.0115 -18.5480 7.8460
H 12.8939 -19.6005 8.4150
C 15.5707 -15.8997 9.0518
C 13.5782 -17.7878 8.7616
C 21.1468 -13.1582 4.8598
C 16.6284 -14.8671 9.1343
C 19.4018 -13.4706 6.9821
C 16.6974 -14.0153 10.2619
C 17.5184 -14.6938 8.0662
C 18.5097 -12.7837 9.2138
C 18.4544 -13.6677 8.1197
C 17.6305 -12.9847 10.2784
C 15.7576 -14.2485 11.4369
H 15.4021 -15.1610 11.3947
H 16.2473 -14.1281 12.2765
H 15.0191 -13.6075 11.3947
C 14.8303 -18.1796 9.1065
H 15.0191 -19.0994 9.2533
C 15.8250 -17.2372 9.2425
H 16.7031 -17.5151 9.4705
C 13.2847 -16.4744 8.5862
H 12.4026 -16.2023 8.3542
C 17.4463 -15.6047 6.8570
H 16.5156 -15.6845 6.5646
H 17.9879 -15.2282 6.1303
H 17.7891 -16.4906 7.0946
C 14.2829 -15.5498 8.7469
H 14.0737 -14.6292 8.6409
C 21.4521 -14.0139 5.8623
H 22.2641 -14.5060 5.8393
C 20.5744 -14.1676 6.9221
H 20.7918 -14.7719 7.6245
C 19.1188 -12.6339 5.9405
Cl 7.8447 12.5684 3.8729
Cl -5.0254 10.3226 6.0399
H 22.5550 -12.2387 3.8412
C 19.5164 -11.6615 9.2533
H 20.3716 -11.9784 8.8928
H 19.1935 -10.9119 8.7104
H 19.6395 -11.3653 10.1785
C 19.9904 -12.4730 4.8750
H 19.7736 -11.8832 4.1626
H 18.3014 -12.1491 5.9478
Cl -8.3163 9.0733 3.3664
Cl 11.1356 11.3191 1.1994
N -10.2528 6.6501 3.5089
H -9.7670 5.8887 3.3982
H -9.6927 7.3667 3.5458
H -10.7286 6.5969 4.2842
N -19.8019 12.4340 -1.3242
H -20.3266 12.4724 -2.0661
H -20.3105 12.1980 -0.6067
H -19.4281 13.2505 -1.1757
C -16.7513 9.5498 -1.8124
C -18.7438 11.4378 -1.5223
C -11.1752 6.8082 2.3796
C -15.6936 8.5171 -1.8950
C -12.9202 7.1206 0.2573
C -15.6246 7.6654 -3.0226
C -14.8036 8.3439 -0.8269
C -13.8123 6.4337 -1.9745
C -13.8676 7.3177 -0.8803
C -14.6915 6.6347 -3.0391
C -16.5644 7.8985 -4.1975
H -16.9199 8.8111 -4.1554
H -16.0747 7.7782 -5.0371
H -17.3029 7.2575 -4.1554
C -17.4917 11.8297 -1.8672
H -17.3029 12.7495 -2.0140
C -16.4970 10.8872 -2.0031
H -15.6189 11.1652 -2.2312
C -12.8056 5.3115 -2.0140
H -11.9504 5.6284 -1.6535
H -13.1285 4.5619 -1.4710
H -12.6825 5.0154 -2.9392
C -19.0373 10.1244 -1.3468
H -19.9194 9.8523 -1.1149
C -14.8757 9.2547 0.3824
H -15.8064 9.3345 0.6747
H -14.3341 8.8782 1.1091
H -14.5329 10.1407 0.1448
C -18.0391 9.1999 -1.5075
H -18.2483 8.2792 -1.4015
C -10.8699 7.6640 1.3771
H -10.0579 8.1560 1.4001
C -11.7476 7.8176 0.3172
H -11.5302 8.4220 -0.3851
C -12.3316 6.1230 2.3644
H -12.5484 5.5332 3.0767
C -13.2032 6.2840 1.2989
H -14.0206 5.7991 1.2915
Cl -4.1451 5.6460 3.3664
Cl 20.3958 -12.3227 1.1994
N -5.2754 8.5348 3.5089
H -6.1777 8.4947 3.3982
H -4.9349 7.6914 3.5458
H -5.0836 8.9734 4.2842
N 4.5081 13.9125 -1.3242
H 4.8037 14.3478 -2.0661
H 4.5581 14.4710 -0.6067
H 5.0283 13.1806 -1.1757
C 0.4850 12.7128 -1.8124
C 3.1163 13.4943 -1.5223
C -4.6773 9.2544 2.3796
C -0.9381 12.3131 -1.8950
C -3.5342 10.6095 0.2573
C -1.7103 12.6792 -3.0226
C -1.5332 11.6290 -0.8269
C -3.6831 11.7255 -1.9745
C -2.8899 11.3314 -0.8803
C -3.0694 12.3864 -3.0391
C -1.0385 13.3765 -4.1975
H -0.0704 13.2281 -4.1554
H -1.3876 13.0126 -5.0371
H -1.2243 14.3366 -4.1554
C 2.8296 12.2140 -1.8672
H 3.5318 11.5906 -2.0140
C 1.5161 11.8238 -2.0031
H 1.3178 10.9244 -2.2312
C -5.1583 11.4148 -2.0140
H -5.3115 10.5157 -1.6535
H -5.6460 12.0693 -1.4710
H -5.4763 11.4563 -2.9392
C 2.1257 14.4052 -1.3468
H 2.3311 15.3051 -1.1149
C -0.7083 11.2360 0.3824
H -0.1739 12.0021 0.6747
H -1.3052 10.9552 1.1091
H -0.1125 10.4962 0.1448
C 0.8258 14.0029 -1.5075
H 0.1332 14.6445 -1.4015
C -4.0889 8.5622 1.3771
H -4.0687 7.6130 1.4001
C -3.5169 9.2455 0.3172
H -3.1023 8.7551 -0.3851
C -4.6925 10.5986 2.3644
H -5.0949 11.0812 3.0767
C -4.1173 11.2729 1.2989
H -4.1285 12.2232 1.2915
Cl -9.1988 3.7474 3.3664
Cl -4.7087 -8.5214 1.1994
N -6.1320 3.2819 3.5089
H -5.7155 4.0833 3.3982
H -7.0326 3.4087 3.5458
H -5.8480 2.8964 4.2842
N -6.3665 -7.8798 -1.3242
H -6.1373 -8.3534 -2.0661
H -5.9078 -8.2023 -0.6067
H -7.2605 -7.9644 -1.1757
C -5.3939 -3.7958 -1.8124
C -6.0327 -6.4654 -1.5223
C -5.8078 2.4040 2.3796
C -5.0285 -2.3635 -1.8950
C -5.2058 0.7366 0.2573
C -4.3253 -1.8778 -3.0226
C -5.3234 -1.5061 -0.8269
C -4.1648 0.3075 -1.9745
C -4.9028 -0.1824 -0.8803
C -3.8993 -0.5544 -3.0391
C -4.0574 -2.8083 -4.1975
H -4.6699 -3.5725 -4.1554
H -4.1980 -2.3240 -5.0371
H -3.1330 -3.1274 -4.1554
C -6.9982 -5.5769 -1.8672
H -7.8891 -5.8734 -2.0140
C -6.6793 -4.2443 -2.0031
H -7.3591 -3.6228 -2.2312
C -3.6963 1.7404 -2.0140
H -4.3984 2.3226 -1.6535
H -2.8857 1.8355 -1.4710
H -3.5014 1.9951 -2.9392
C -4.7486 -6.0629 -1.3468
H -4.0719 -6.6907 -1.1149
C -6.0762 -2.0240 0.3824
H -5.6799 -2.8699 0.6747
H -6.0209 -1.3667 1.1091
H -7.0148 -2.1701 0.1448
C -4.4470 -4.7361 -1.5075
H -3.5451 -4.4570 -1.4015
C -6.7015 2.2406 1.3771
H -7.5336 2.6977 1.4001
C -6.3957 1.4036 0.3172
H -7.0278 1.2897 -0.3851
C -4.6361 1.7451 2.3644
H -4.0170 1.8523 3.0767
C -4.3397 0.9098 1.2989
H -3.5111 0.4443 1.2915
N -9.1647 -10.1263 -3.7304
H -9.5052 -10.9697 -3.6935
H -9.3566 -9.6877 -2.9551
N -18.9483 -4.7486 -8.5636
H -19.2439 -4.3133 -9.3055
H -18.9982 -4.1901 -7.8460
H -19.4685 -5.4806 -8.4150
C -14.9252 -5.9483 -9.0518
C -17.5565 -5.1668 -8.7616
C -9.7628 -9.4067 -4.8598
C -13.5020 -6.3480 -9.1343
C -10.9059 -8.0516 -6.9821
C -12.7298 -5.9819 -10.2619
C -12.9070 -7.0321 -8.0662
C -10.7571 -6.9356 -9.2138
C -11.5503 -7.3297 -8.1197
C -11.3707 -6.2747 -10.2784
C -13.4017 -5.2846 -11.4369
H -14.3697 -5.4330 -11.3947
H -13.0526 -5.6485 -12.2765
H -13.2158 -4.3245 -11.3947
C -17.2698 -6.4471 -9.1065
H -17.9720 -7.0705 -9.2533
C -15.9562 -6.8373 -9.2425
H -15.7579 -7.7367 -9.4705
C -16.5658 -4.2559 -8.5862
H -16.7712 -3.3560 -8.3542
C -13.7318 -7.4251 -6.8570
H -14.2663 -6.6590 -6.5646
H -13.1350 -7.7059 -6.1303
H -14.3277 -8.1650 -7.0946
C -15.2660 -4.6582 -8.7469
H -14.5733 -4.0166 -8.6409
C -10.3513 -10.0989 -5.8623
H -10.3715 -11.0481 -5.8393
C -10.9232 -9.4156 -6.9221
H -11.3379 -9.9060 -7.6245
C -10.3228 -7.3882 -5.9405
Cl 5.8660 14.9766 -3.8729
Cl 13.6470 -2.9921 -6.0399
H -8.2625 -10.1664 -3.8412
C -9.2819 -7.2463 -9.2533
H -9.1287 -8.1454 -8.8928
H -8.7942 -6.5918 -8.7104
H -8.9638 -7.2048 -10.1785
C -9.7477 -8.0625 -4.8750
H -9.3452 -7.5799 -4.1626
H -10.3117 -6.4379 -5.9478
Cl -21.4023 13.0779 -3.8729
Cl 6.4295 0.8092 -6.0399
N 7.8528 12.6124 -3.7304
H 7.4363 13.4138 -3.8412
H 8.7535 12.7392 -3.6935
H 7.5689 12.2270 -2.9551
N 8.0873 1.4507 -8.5636
H 7.8581 0.9771 -9.3055
H 7.6287 1.1283 -7.8460
H 8.9813 1.3662 -8.4150
C 7.1147 5.5347 -9.0518
C 7.7536 2.8652 -8.7616
C 7.5286 11.7346 -4.8598
C 6.7493 6.9671 -9.1343
C 6.9266 10.0671 -6.9821
C 6.0462 7.4527 -10.2619
C 7.0443 7.8244 -8.0662
C 5.8857 9.6380 -9.2138
C 6.6236 9.1482 -8.1197
C 5.6202 8.7762 -10.2784
C 5.7782 6.5223 -11.4369
H 6.3907 5.7581 -11.3947
H 5.9188 7.0065 -12.2765
H 4.8538 6.2032 -11.3947
C 8.7190 3.7536 -9.1065
H 9.6100 3.4572 -9.2533
C 8.4002 5.0863 -9.2425
H 9.0799 5.7077 -9.4705
C 5.4172 11.0709 -9.2533
H 6.1192 11.6531 -8.8928
H 4.6065 11.1661 -8.7104
H 5.2223 11.3256 -10.1785
C 6.4694 3.2677 -8.5862
H 5.7928 2.6398 -8.3542
C 7.7970 7.3066 -6.8570
H 7.4008 6.4607 -6.5646
H 7.7418 7.9638 -6.1303
H 8.7357 7.1605 -7.0946
C 6.1679 4.5945 -8.7469
H 5.2659 4.8736 -8.6409
C 8.4223 11.5711 -5.8623
H 9.2544 12.0282 -5.8393
C 8.1166 10.7342 -6.9221
H 8.7486 10.6202 -7.6245
C 6.3569 11.0757 -4.8750
H 5.7378 11.1829 -4.1626
C 6.0605 10.2404 -5.9405
H 5.2320 9.7749 -5.9478
H -4.6731 -12.7724 -3.8412
C -1.6345 -13.3496 -9.2533
H -2.4898 -13.0327 -8.8928
H -1.3116 -14.0992 -8.7104
H -1.7577 -13.6457 -10.1785
C -2.1085 -12.5381 -4.8750
H -1.8918 -13.1279 -4.1626
H -0.4195 -12.8620 -5.9478
Cl -6.1239 -9.5878 -3.8729
Cl 6.7463 -7.3420 -6.0399
N -4.1873 -12.0110 -3.7304
H -4.7474 -11.2944 -3.6935
H -3.7115 -12.0642 -2.9551
N 5.3617 -6.2271 -8.5636
H 5.8865 -6.1888 -9.3055
H 5.8703 -6.4631 -7.8460
H 4.9879 -5.4106 -8.4150
C 2.3112 -9.1114 -9.0518
C 4.3037 -7.2233 -8.7616
C -3.2650 -11.8529 -4.8598
C 1.2535 -10.1440 -9.1343
C -1.5199 -11.5405 -6.9821
C 1.1845 -10.9958 -10.2619
C 0.3635 -10.3172 -8.0662
C -0.6278 -12.2274 -9.2138
C -0.5726 -11.3434 -8.1197
C 0.2513 -12.0264 -10.2784
C 2.1242 -10.7626 -11.4369
H 2.4798 -9.8501 -11.3947
H 1.6345 -10.8830 -12.2765
H 2.8628 -11.4036 -11.3947
C 3.0515 -6.8314 -9.1065
H 2.8628 -5.9116 -9.2533
C 2.0568 -7.7739 -9.2425
H 1.1788 -7.4960 -9.4705
C 4.5972 -8.5367 -8.5862
H 5.4792 -8.8088 -8.3542
C 0.4356 -9.4064 -6.8570
H 1.3663 -9.3266 -6.5646
H -0.1060 -9.7829 -6.1303
H 0.0928 -8.5205 -7.0946
C 3.5989 -9.4613 -8.7469
H 3.8082 -10.3819 -8.6409
C -3.5703 -10.9972 -5.8623
H -4.3822 -10.5051 -5.8393
C -2.6926 -10.8435 -6.9221
H -2.9099 -10.2391 -7.6245
C -1.2370 -12.3772 -5.9405
Cl 10.0371 -6.0927 -3.3664
Cl -9.4147 -8.3385 -1.1994
N 11.9737 -3.6695 -3.5089
H 11.4879 -2.9081 -3.3982
H 11.4136 -4.3861 -3.5458
H 12.4495 -3.6163 -4.2842
N 21.5227 -9.4534 1.3242
H 22.0475 -9.4918 2.0661
H 22.0313 -9.2175 0.6067
H 21.1489 -10.2699 1.1757
C 18.4722 -6.5692 1.8124
C 20.4647 -8.4572 1.5223
C 12.8960 -3.8277 -2.3796
C 17.4145 -5.5365 1.8950
C 14.6411 -4.1400 -0.2573
C 17.3455 -4.6848 3.0226
C 16.5245 -5.3633 0.8269
C 15.5332 -3.4531 1.9745
C 15.5884 -4.3371 0.8803
C 16.4123 -3.6541 3.0391
C 18.2852 -4.9179 4.1975
H 18.6408 -5.8305 4.1554
H 17.7955 -4.7976 5.0371
H 19.0238 -4.2769 4.1554
C 19.2125 -8.8491 1.8672
H 19.0238 -9.7689 2.0140
C 18.2178 -7.9066 2.0031
H 17.3398 -8.1846 2.2312
C 14.5265 -2.3309 2.0140
H 13.6712 -2.6478 1.6535
H 14.8494 -1.5813 1.4710
H 14.4033 -2.0348 2.9392
C 20.7582 -7.1438 1.3468
H 21.6402 -6.8717 1.1149
C 16.5966 -6.2741 -0.3824
H 17.5273 -6.3539 -0.6747
H 16.0550 -5.8976 -1.1091
H 16.2538 -7.1601 -0.1448
C 19.7599 -6.2193 1.5075
H 19.9692 -5.2986 1.4015
C 12.5907 -4.6834 -1.3771
H 11.7788 -5.1755 -1.4001
C 13.4684 -4.8370 -0.3172
H 13.2511 -5.4414 0.3851
C 14.0525 -3.1424 -2.3644
H 14.2692 -2.5526 -3.0767
C 14.9240 -3.3034 -1.2989
H 15.7415 -2.8186 -1.2915
Cl 5.8660 -2.6654 -3.3664
Cl -18.6750 15.3033 -1.1994
N 6.9963 -5.5542 -3.5089
H 7.8985 -5.5142 -3.3982
H 6.6558 -4.7108 -3.5458
H 6.8044 -5.9928 -4.2842
N -2.7873 -10.9319 1.3242
H -3.0829 -11.3672 2.0661
H -2.8372 -11.4904 0.6067
H -3.3075 -10.2000 1.1757
C 1.2358 -9.7322 1.8124
C -1.3955 -10.5137 1.5223
C 6.3982 -6.2738 -2.3796
C 2.6590 -9.3325 1.8950
C 5.2551 -7.6289 -0.2573
C 3.4312 -9.6986 3.0226
C 3.2540 -8.6484 0.8269
C 5.4039 -8.7450 1.9745
C 4.6107 -8.3508 0.8803
C 4.7903 -9.4058 3.0391
C 2.7593 -10.3959 4.1975
H 1.7913 -10.2475 4.1554
H 3.1084 -10.0320 5.0371
H 2.9452 -11.3560 4.1554
C -1.1088 -9.2334 1.8672
H -1.8110 -8.6100 2.0140
C 0.2048 -8.8432 2.0031
H 0.4031 -7.9438 2.2312
C 6.8791 -8.4342 2.0140
H 7.0323 -7.5352 1.6535
H 7.3668 -9.0887 1.4710
H 7.1972 -8.4757 2.9392
C -0.4048 -11.4246 1.3468
H -0.6102 -12.3245 1.1149
C 2.4292 -8.2554 -0.3824
H 1.8947 -9.0215 -0.6747
H 3.0260 -7.9746 -1.1091
H 1.8333 -7.5156 -0.1448
C 0.8950 -11.0224 1.5075
H 1.5877 -11.6639 1.4015
C 5.8097 -5.5816 -1.3771
H 5.7895 -4.6324 -1.4001
C 5.2378 -6.2649 -0.3172
H 4.8231 -5.7745 0.3851
C 6.4133 -7.6180 -2.3644
H 6.8158 -8.1006 -3.0767
C 5.8382 -8.2923 -1.2989
H 5.8493 -9.2426 -1.2915
Cl 10.9197 -0.7668 -3.3664
Cl 6.4295 11.5020 -1.1994
N 7.8528 -0.3013 -3.5089
H 7.4363 -1.1027 -3.3982
H 8.7535 -0.4281 -3.5458
H 7.5689 0.0842 -4.2842
N 8.0873 10.8604 1.3242
H 7.8581 11.3340 2.0661
H 7.6287 11.1829 0.6067
H 8.9813 10.9450 1.1757
C 7.1147 6.7764 1.8124
C 7.7536 9.4460 1.5223
C 7.5286 0.5766 -2.3796
C 6.7493 5.3441 1.8950
C 6.9266 2.2440 -0.2573
C 6.0462 4.8584 3.0226
C 7.0443 4.4867 0.8269
C 5.8857 2.6731 1.9745
C 6.6236 3.1630 0.8803
C 5.6202 3.5350 3.0391
C 5.7782 5.7889 4.1975
H 6.3907 6.5531 4.1554
H 5.9188 5.3046 5.0371
H 4.8538 6.1080 4.1554
C 8.7190 8.5575 1.8672
H 9.6100 8.8540 2.0140
C 8.4002 7.2249 2.0031
H 9.0799 6.6034 2.2312
C 5.4172 1.2402 2.0140
H 6.1192 0.6580 1.6535
H 4.6065 1.1451 1.4710
H 5.2223 0.9855 2.9392
C 6.4694 9.0435 1.3468
H 5.7928 9.6713 1.1149
C 7.7970 5.0046 -0.3824
H 7.4008 5.8505 -0.6747
H 7.7418 4.3473 -1.1091
H 8.7357 5.1507 -0.1448
C 6.1679 7.7167 1.5075
H 5.2659 7.4376 1.4015
C 8.4223 0.7400 -1.3771
H 9.2544 0.2829 -1.4001
C 8.1166 1.5770 -0.3172
H 8.7486 1.6909 0.3851
C 6.3569 1.2355 -2.3644
H 5.7378 1.1283 -3.0767
C 6.0605 2.0708 -1.2989
H 5.2320 2.5363 -1.2915
N 10.8856 -5.5542 -25.2270
H 9.9833 -5.5142 -25.1162
H 11.2261 -4.7108 -25.2639
H 11.0774 -5.9928 -26.0023
C 11.4837 -6.2738 -24.0976
C 12.6268 -7.6289 -21.9753
C 15.4527 -8.2554 -22.1004
H 15.9871 -9.0215 -22.3928
H 14.8558 -7.9746 -22.8271
H 16.0485 -7.5156 -21.8628
C 12.0721 -5.5816 -23.0951
H 12.0923 -4.6324 -23.1181
C 12.6441 -6.2649 -22.0353
C 11.4685 -7.6180 -24.0824
H 11.0661 -8.1006 -24.7948
C 12.0437 -8.2923 -23.0169
H 12.0325 -9.2426 -23.0096
Cl 12.0159 -2.6654 18.3516
Cl 4.2348 15.3033 20.5186
N 20.6691 -10.9319 -20.3938
H 20.9647 -11.3672 -19.6519
H 20.7191 -11.4904 -21.1114
H 21.1893 -10.2000 -20.5424
C 16.6460 -9.7322 -19.9056
C 19.2773 -10.5137 -20.1958
C 15.2229 -9.3325 -19.8231
C 14.4507 -9.6986 -18.6955
C 14.6278 -8.6484 -20.8912
C 12.4779 -8.7450 -19.7436
C 13.2711 -8.3508 -20.8377
C 13.0916 -9.4058 -18.6790
C 15.1225 -10.3959 -17.5205
H 16.0906 -10.2475 -17.5627
H 14.7734 -10.0320 -16.6809
H 14.9367 -11.3560 -17.5627
C 18.9906 -9.2334 -19.8509
H 19.6928 -8.6100 -19.7041
C 17.6771 -8.8432 -19.7149
H 17.4788 -7.9438 -19.4869
C 11.0027 -8.4342 -19.7041
H 10.8495 -7.5352 -20.0646
H 10.5150 -9.0887 -20.2470
H 10.6847 -8.4757 -18.7789
C 18.2867 -11.4246 -20.3712
H 18.4921 -12.3245 -20.6032
C 16.9868 -11.0224 -20.2105
H 16.2942 -11.6639 -20.3165
H 13.0587 -5.7745 -21.3329
N 10.0290 -0.3013 -25.2270
H 10.4455 -1.1027 -25.1162
H 9.1284 -0.4281 -25.2639
H 10.3130 0.0842 -26.0023
C 10.3532 0.5766 -24.0976
C 10.9552 2.2440 -21.9753
C 10.0848 5.0046 -22.1004
H 10.4811 5.8505 -22.3928
H 10.1401 4.3473 -22.8271
H 9.1462 5.1507 -21.8628
C 9.4595 0.7400 -23.0951
H 8.6274 0.2829 -23.1181
C 9.7653 1.5770 -22.0353
C 11.5249 1.2355 -24.0824
H 12.1440 1.1283 -24.7948
C 11.8213 2.0708 -23.0169
H 12.6499 2.5363 -23.0096
Cl 6.9622 -0.7668 18.3516
Cl -20.8697 11.5020 20.5186
N 9.7945 10.8604 -20.3938
H 10.0237 11.3340 -19.6519
H 10.2532 11.1829 -21.1114
H 8.9005 10.9450 -20.5424
C 10.7671 6.7764 -19.9056
C 10.1283 9.4460 -20.1958
C 11.1325 5.3441 -19.8231
C 11.8357 4.8584 -18.6955
C 10.8376 4.4867 -20.8912
C 11.9962 2.6731 -19.7436
C 11.2582 3.1630 -20.8377
C 12.2617 3.5350 -18.6790
C 12.1036 5.7889 -17.5205
H 11.4911 6.5531 -17.5627
H 11.9630 5.3046 -16.6809
H 13.0280 6.1080 -17.5627
C 9.1628 8.5575 -19.8509
H 8.2719 8.8540 -19.7041
C 9.4817 7.2249 -19.7149
H 8.8019 6.6034 -19.4869
C 12.4647 1.2402 -19.7041
H 11.7626 0.6580 -20.0646
H 13.2753 1.1451 -20.2470
H 12.6596 0.9855 -18.7789
C 11.4124 9.0435 -20.3712
H 12.0891 9.6713 -20.6032
C 11.7140 7.7167 -20.2105
H 12.6159 7.4376 -20.3165
H 9.1332 1.6909 -21.3329
N 5.9082 -3.6695 -25.2270
H 6.3940 -2.9081 -25.1162
H 6.4683 -4.3861 -25.2639
H 5.4324 -3.6163 -26.0023
C 4.9858 -3.8277 -24.0976
C 3.2408 -4.1400 -21.9753
C 1.2853 -6.2741 -22.1004
H 0.3546 -6.3539 -22.3928
H 1.8269 -5.8976 -22.8271
H 1.6281 -7.1601 -21.8628
C 5.2911 -4.6834 -23.0951
H 6.1031 -5.1755 -23.1181
C 4.4134 -4.8370 -22.0353
C 3.8294 -3.1424 -24.0824
H 3.6126 -2.5526 -24.7948
C 2.9578 -3.3034 -23.0169
H 2.1404 -2.8186 -23.0096
Cl 7.8447 -6.0927 18.3516
Cl -5.0254 -8.3385 20.5186
N -3.6409 -9.4534 -20.3938
H -4.1656 -9.4918 -19.6519
H -4.1495 -9.2175 -21.1114
H -3.2671 -10.2699 -20.5424
C -0.5903 -6.5692 -19.9056
C -2.5828 -8.4572 -20.1958
C 0.4674 -5.5365 -19.8231
C 0.5364 -4.6848 -18.6955
C 1.3574 -5.3633 -20.8912
C 2.3487 -3.4531 -19.7436
C 2.2934 -4.3371 -20.8377
C 1.4695 -3.6541 -18.6790
C -0.4034 -4.9179 -17.5205
H -0.7589 -5.8305 -17.5627
H 0.0863 -4.7976 -16.6809
H -1.1419 -4.2769 -17.5627
C -1.3307 -8.8491 -19.8509
H -1.1419 -9.7689 -19.7041
C -0.3360 -7.9066 -19.7149
H 0.5421 -8.1846 -19.4869
C 3.3554 -2.3309 -19.7041
H 4.2106 -2.6478 -20.0646
H 3.0325 -1.5813 -20.2470
H 3.4785 -2.0348 -18.7789
C -2.8763 -7.1438 -20.3712
H -3.7584 -6.8717 -20.6032
C -1.8781 -6.2193 -20.2105
H -2.0873 -5.2986 -20.3165
H 4.6308 -5.4414 -21.3329
H 22.5550 -12.7724 17.8769
C 19.5164 -13.3496 12.4647
H 20.3716 -13.0327 12.8252
H 19.1935 -14.0992 13.0077
H 19.6395 -13.6457 11.5395
C 19.9904 -12.5381 16.8431
H 19.7736 -13.1279 17.5554
H 18.3014 -12.8620 15.7702
Cl -8.3163 -9.5878 17.8451
Cl 11.1356 -7.3420 15.6781
N 22.0692 -12.0110 17.9876
H 22.6293 -11.2944 18.0245
H 21.5934 -12.0642 18.7629
N 12.5201 -6.2271 13.1545
H 11.9954 -6.1888 12.4126
H 12.0115 -6.4631 13.8720
H 12.8939 -5.4106 13.3030
C 15.5707 -9.1114 12.6663
C 13.5782 -7.2233 12.9564
C 21.1468 -11.8529 16.8583
C 16.6284 -10.1440 12.5837
C 19.4018 -11.5405 14.7360
C 16.6974 -10.9958 11.4561
C 17.5184 -10.3172 13.6518
C 18.5097 -12.2274 12.5042
C 18.4544 -11.3434 13.5984
C 17.6305 -12.0264 11.4396
C 15.7576 -10.7626 10.2812
H 15.4021 -9.8501 10.3233
H 16.2473 -10.8830 9.4416
H 15.0191 -11.4036 10.3233
C 14.8303 -6.8314 12.6115
H 15.0191 -5.9116 12.4647
C 15.8250 -7.7739 12.4756
H 16.7031 -7.4960 12.2475
C 13.2847 -8.5367 13.1319
H 12.4026 -8.8088 13.3638
C 17.4463 -9.4064 14.8611
H 16.5156 -9.3266 15.1534
H 17.9879 -9.7829 15.5878
H 17.7891 -8.5205 14.6235
C 14.2829 -9.4613 12.9712
H 14.0737 -10.3819 13.0772
C 21.4521 -10.9972 15.8558
H 22.2641 -10.5051 15.8788
C 20.5744 -10.8435 14.7959
H 20.7918 -10.2391 14.0936
C 19.1188 -12.3772 15.7776
Cl -20.3061 14.9766 17.8451
Cl 4.2348 -2.9921 15.6781
N -5.2754 -10.1263 17.9876
H -6.1777 -10.1664 17.8769
H -4.9349 -10.9697 18.0245
H -5.0836 -9.6877 18.7629
N 4.5081 -4.7486 13.1545
H 4.8037 -4.3133 12.4126
H 4.5581 -4.1901 13.8720
H 5.0283 -5.4806 13.3030
C 0.4850 -5.9483 12.6663
C 3.1163 -5.1668 12.9564
C -4.6773 -9.4067 16.8583
C -0.9381 -6.3480 12.5837
C -3.5342 -8.0516 14.7360
C -1.7103 -5.9819 11.4561
C -1.5332 -7.0321 13.6518
C -3.6831 -6.9356 12.5042
C -2.8899 -7.3297 13.5984
C -3.0694 -6.2747 11.4396
C -1.0385 -5.2846 10.2812
H -0.0704 -5.4330 10.3233
H -1.3876 -5.6485 9.4416
H -1.2243 -4.3245 10.3233
C 2.8296 -6.4471 12.6115
H 3.5318 -7.0705 12.4647
C 1.5161 -6.8373 12.4756
H 1.3178 -7.7367 12.2475
C -5.1583 -7.2463 12.4647
H -5.3115 -8.1454 12.8252
H -5.6460 -6.5918 13.0077
H -5.4763 -7.2048 11.5395
C 2.1257 -4.2559 13.1319
H 2.3311 -3.3560 13.3638
C -0.7083 -7.4251 14.8611
H -0.1739 -6.6590 15.1534
H -1.3052 -7.7059 15.5878
H -0.1125 -8.1650 14.6235
C 0.8258 -4.6582 12.9712
H 0.1332 -4.0166 13.0772
C -4.0889 -10.0989 15.8558
H -4.0687 -11.0481 15.8788
C -3.5169 -9.4156 14.7959
H -3.1023 -9.9060 14.0936
C -4.6925 -8.0625 16.8431
H -5.0949 -7.5799 17.5554
C -4.1173 -7.3882 15.7776
H -4.1285 -6.4379 15.7702
N -22.2930 12.6124 17.9876
H -23.1936 12.7392 18.0245
H -22.0090 12.2270 18.7629
N -22.5275 1.4507 13.1545
H -22.2983 0.9771 12.4126
H -22.0688 1.1283 13.8720
H -23.4215 1.3662 13.3030
C -21.5549 5.5347 12.6663
C -22.1937 2.8652 12.9564
C -21.9688 11.7346 16.8583
C -21.1895 6.9671 12.5837
C -21.3668 10.0671 14.7360
C -20.4863 7.4527 11.4561
C -21.4844 7.8244 13.6518
C -20.3258 9.6380 12.5042
C -21.0638 9.1482 13.5984
C -20.0603 8.7762 11.4396
C -20.2184 6.5223 10.2812
H -20.8309 5.7581 10.3233
H -20.3590 7.0065 9.4416
H -19.2940 6.2032 10.3233
C -23.1592 3.7536 12.6115
H -24.0501 3.4572 12.4647
C -22.8403 5.0863 12.4756
H -23.5201 5.7077 12.2475
C -20.9096 3.2677 13.1319
H -20.2329 2.6398 13.3638
C -22.2372 7.3066 14.8611
H -21.8409 6.4607 15.1534
H -22.1819 7.9638 15.5878
H -23.1758 7.1605 14.6235
C -20.6080 4.5945 12.9712
H -19.7061 4.8736 13.0772
C -22.8625 11.5711 15.8558
H -23.6946 12.0282 15.8788
C -22.5567 10.7342 14.7959
H -23.1888 10.6202 14.0936
C -20.5007 10.2404 15.7776
Cl 6.9622 13.0779 17.8451
Cl 11.4523 0.8092 15.6781
H -21.8765 13.4138 17.8769
C -19.8573 11.0709 12.4647
H -20.5594 11.6531 12.8252
H -19.0467 11.1661 13.0077
H -19.6624 11.3256 11.5395
C -20.7971 11.0757 16.8431
H -20.1780 11.1829 17.5554
H -19.6721 9.7749 15.7702
